6
Step 0, Time 0.000 fs, State 2, Energy -77.62174184 Ha, Coefficient [0.+0.j 1.+0.j]
C       -1.333526     0.151557     0.002045
H       -0.936384    -0.804118     0.494306
H       -2.333962    -0.014210    -0.531314
C       -0.597312     1.438604    -0.002665
H       -0.796505     2.277230     0.698398
H        0.245907     1.677226    -0.653921
6
Step 1, Time 0.300 fs, State 2, Energy -77.62179914 Ha, Coefficient [-2.27496763e-05+1.05253109e-04j  1.99348252e-01+9.79928703e-01j]
C       -1.333489     0.151612     0.002039
H       -0.936561    -0.803710     0.494207
H       -2.333543    -0.014130    -0.531169
C       -0.597371     1.438530    -0.002648
H       -0.796556     2.277056     0.698462
H        0.245973     1.677144    -0.654158
6
Step 2, Time 0.600 fs, State 2, Energy -77.62196716 Ha, Coefficient [-3.92339852e-04-8.47276439e-05j -9.21332597e-01+3.88775109e-01j]
C       -1.333380     0.151777     0.002023
H       -0.937076    -0.802493     0.493920
H       -2.332295    -0.013880    -0.530746
C       -0.597544     1.438306    -0.002600
H       -0.796702     2.276520     0.698641
H        0.246151     1.676915    -0.654859
