5
Step=0 Time=0.000 State=1 Energy=-93.38036941 Pop=[0.0000 1.0000]
C        0.000000     1.244007     0.000000
N        0.000000    -1.140072     0.000000
H        1.757445     2.358945     0.000000
H       -1.757445     2.358945     0.000000
H        0.000000    -2.292805     0.000000
5
Step=1 Time=0.200 State=1 Energy=-130.72925766 Pop=[0.0001 0.9999]
C        0.000859     1.243640    -0.000632
N       -0.000591    -1.139937     0.000191
H        1.758044     2.359016     0.000498
H       -1.756807     2.359205     0.000923
H       -0.000983    -2.293128    -0.000403
5
Step=2 Time=0.400 State=1 Energy=-130.73275206 Pop=[0.0006 0.9994]
C        0.001718     1.243276    -0.001264
N       -0.001182    -1.139802     0.000382
H        1.757980     2.358616     0.000996
H       -1.755508     2.358995     0.001845
H       -0.001966    -2.292522    -0.000806
5
Step=3 Time=0.600 State=1 Energy=-130.73371960 Pop=[0.0014 0.9986]
C        0.002578     1.242914    -0.001897
N       -0.001773    -1.139669     0.000574
H        1.757255     2.357745     0.001495
H       -1.753548     2.358314     0.002769
H       -0.002948    -2.290987    -0.001211
5
Step=4 Time=0.800 State=1 Energy=-130.73213895 Pop=[0.0031 0.9969]
C        0.003437     1.242553    -0.002530
N       -0.002363    -1.139535     0.000766
H        1.755867     2.356401     0.001996
H       -1.750925     2.357161     0.003693
H       -0.003929    -2.288536    -0.001620
5
Step=5 Time=1.000 State=1 Energy=-130.72796028 Pop=[0.0067 0.9933]
C        0.004296     1.242195    -0.003164
N       -0.002954    -1.139399     0.000959
H        1.753813     2.354582     0.002498
H       -1.747637     2.355535     0.004619
H       -0.004908    -2.285184    -0.002032
5
Step=6 Time=1.200 State=1 Energy=-130.72110331 Pop=[0.0164 0.9836]
C        0.005154     1.241839    -0.003799
N       -0.003545    -1.139260     0.001152
H        1.751091     2.352287     0.003003
H       -1.743681     2.353434     0.005546
H       -0.005885    -2.280956    -0.002451
5
Step=7 Time=1.400 State=1 Energy=-130.71148247 Pop=[0.0177 0.9823]
C        0.006013     1.241486    -0.004435
N       -0.004135    -1.139116     0.001347
H        1.747695     2.349513     0.003511
H       -1.739054     2.350856     0.006475
H       -0.006860    -2.275880    -0.002878
5
Step=8 Time=1.600 State=1 Energy=-130.69959845 Pop=[0.0175 0.9825]
C        0.006871     1.241136    -0.005072
N       -0.004726    -1.138963     0.001544
H        1.743620     2.346257     0.004023
H       -1.733750     2.347798     0.007407
H       -0.007832    -2.269997    -0.003315
5
Step=9 Time=1.800 State=1 Energy=-130.68898302 Pop=[0.0174 0.9826]
C        0.007729     1.240789    -0.005712
N       -0.005316    -1.138798     0.001742
H        1.738862     2.342514     0.004540
H       -1.727763     2.344256     0.008343
H       -0.008801    -2.263351    -0.003766
5
Step=10 Time=2.000 State=1 Energy=-130.67572950 Pop=[0.0173 0.9827]
C        0.008587     1.240446    -0.006354
N       -0.005906    -1.138618     0.001943
H        1.733411     2.338282     0.005063
H       -1.721086     2.340228     0.009283
H       -0.009767    -2.255996    -0.004234
5
Step=11 Time=2.200 State=1 Energy=-130.65960618 Pop=[0.0172 0.9828]
C        0.009444     1.240109    -0.006998
N       -0.006496    -1.138417     0.002147
H        1.727261     2.333555     0.005594
H       -1.713712     2.335709     0.010230
H       -0.010730    -2.247997    -0.004724
5
Step=12 Time=2.400 State=1 Energy=-130.64039348 Pop=[0.0171 0.9829]
C        0.010301     1.239777    -0.007646
N       -0.007086    -1.138191     0.002355
H        1.720402     2.328328     0.006135
H       -1.705631     2.330693     0.011183
H       -0.011689    -2.239425    -0.005240
5
Step=13 Time=2.600 State=1 Energy=-130.61790690 Pop=[0.0171 0.9829]
C        0.011158     1.239452    -0.008298
N       -0.007675    -1.137933     0.002567
H        1.712823     2.322595     0.006686
H       -1.696832     2.325175     0.012145
H       -0.012645    -2.230360    -0.005790
5
Step=14 Time=2.800 State=1 Energy=-130.59200501 Pop=[0.0171 0.9829]
C        0.012014     1.239135    -0.008955
N       -0.008264    -1.137638     0.002784
H        1.704512     2.316351     0.007251
H       -1.687305     2.319151     0.013119
H       -0.013598    -2.220893    -0.006380
5
Step=15 Time=3.000 State=1 Energy=-130.56263334 Pop=[0.0171 0.9829]
C        0.012870     1.238828    -0.009618
N       -0.008853    -1.137299     0.003008
H        1.695457     2.309590     0.007832
H       -1.677036     2.312613     0.014105
H       -0.014547    -2.211127    -0.007020
5
Step=16 Time=3.200 State=1 Energy=-130.52985310 Pop=[0.0171 0.9829]
C        0.013725     1.238531    -0.010288
N       -0.009441    -1.136907     0.003240
H        1.685643     2.302303     0.008432
H       -1.666011     2.305555     0.015107
H       -0.015494    -2.201170    -0.007720
5
Step=17 Time=3.400 State=1 Energy=-130.49387002 Pop=[0.0169 0.9831]
C        0.014580     1.238247    -0.010966
N       -0.010029    -1.136454     0.003481
H        1.675054     2.294483     0.009055
H       -1.654213     2.297969     0.016127
H       -0.016439    -2.191144    -0.008493
5
Step=18 Time=3.600 State=1 Energy=-130.45506275 Pop=[0.0168 0.9832]
C        0.015434     1.237977    -0.011654
N       -0.010616    -1.135932     0.003733
H        1.663672     2.286123     0.009704
H       -1.641625     2.289848     0.017170
H       -0.017382    -2.181174    -0.009352
5
Step=19 Time=3.800 State=1 Energy=-130.41400504 Pop=[0.0165 0.9835]
C        0.016287     1.237723    -0.012352
N       -0.011202    -1.135332     0.003997
H        1.651478     2.277214     0.010383
H       -1.628229     2.281183     0.018239
H       -0.018324    -2.171393    -0.010313
5
Step=20 Time=4.000 State=1 Energy=-130.37149150 Pop=[0.0160 0.9840]
C        0.017139     1.237487    -0.013063
N       -0.011788    -1.134644     0.004277
H        1.638452     2.267748     0.011097
H       -1.614003     2.271967     0.019337
H       -0.019266    -2.161941    -0.011393
5
Step=21 Time=4.200 State=1 Energy=-130.32853102 Pop=[0.0261 0.9739]
C        0.017991     1.237273    -0.013789
N       -0.012372    -1.133860     0.004573
H        1.624573     2.257715     0.011850
H       -1.598927     2.262190     0.020468
H       -0.020209    -2.152955    -0.012610
5
Step=22 Time=4.400 State=1 Energy=-130.28761031 Pop=[0.0554 0.9446]
C        0.018843     1.237082    -0.014529
N       -0.012956    -1.132969     0.004888
H        1.609816     2.247108     0.012647
H       -1.582976     2.251843     0.021637
H       -0.021154    -2.144575    -0.013984
5
Step=23 Time=4.600 State=1 Energy=-130.25153286 Pop=[0.0798 0.9202]
C        0.019693     1.236917    -0.015288
N       -0.013539    -1.131965     0.005224
H        1.594158     2.235915     0.013492
H       -1.566125     2.240917     0.022848
H       -0.022102    -2.136931    -0.015536
5
Step=24 Time=4.800 State=1 Energy=-130.21924834 Pop=[0.0855 0.9145]
C        0.020542     1.236780    -0.016065
N       -0.014120    -1.130838     0.005583
H        1.577571     2.224128     0.014391
H       -1.548349     2.229402     0.024104
H       -0.023054    -2.130146    -0.017286
5
Step=25 Time=5.000 State=1 Energy=-130.19179754 Pop=[0.0727 0.9273]
C        0.021391     1.236676    -0.016862
N       -0.014700    -1.129582     0.005968
H        1.560030     2.211738     0.015346
H       -1.529620     2.217288     0.025408
H       -0.024012    -2.124329    -0.019254
5
Step=26 Time=5.200 State=1 Energy=-130.17018773 Pop=[0.0551 0.9449]
C        0.022239     1.236607    -0.017681
N       -0.015279    -1.128192     0.006381
H        1.541505     2.198732     0.016360
H       -1.509908     2.204565     0.026763
H       -0.024976    -2.119570    -0.021458
5
Step=27 Time=5.400 State=1 Energy=-130.15526241 Pop=[0.0570 0.9430]
C        0.023085     1.236576    -0.018522
N       -0.015856    -1.126663     0.006823
H        1.521967     2.185101     0.017438
H       -1.489186     2.191221     0.028171
H       -0.025947    -2.115939    -0.023918
5
Step=28 Time=5.600 State=1 Energy=-130.14753300 Pop=[0.1066 0.8934]
C        0.023931     1.236586    -0.019387
N       -0.016432    -1.124995     0.007296
H        1.501387     2.170833     0.018579
H       -1.467422     2.177245     0.029632
H       -0.026926    -2.113476    -0.026648
5
Step=29 Time=5.800 State=1 Energy=-130.14702823 Pop=[0.2209 0.7791]
C        0.024776     1.236640    -0.020275
N       -0.017007    -1.123186     0.007801
H        1.479734     2.155916     0.019784
H       -1.444585     2.162624     0.031146
H       -0.027914    -2.112201    -0.029661
5
Step=30 Time=6.000 State=1 Energy=-130.15323387 Pop=[0.3848 0.6152]
C        0.025619     1.236741    -0.021187
N       -0.017579    -1.121238     0.008339
H        1.456977     2.140339     0.021054
H       -1.420642     2.147346     0.032711
H       -0.028911    -2.112101    -0.032967
5
Step=31 Time=6.200 State=1 Energy=-130.16501704 Pop=[0.5423 0.4577]
C        0.026461     1.236894    -0.022122
N       -0.018150    -1.119155     0.008910
H        1.433083     2.124087     0.022385
H       -1.395562     2.131396     0.034326
H       -0.029916    -2.113140    -0.036572
5
Step=32 Time=6.400 State=1 Energy=-130.18064659 Pop=[0.6189 0.3811]
C        0.027302     1.237100    -0.023080
N       -0.018720    -1.116942     0.009515
H        1.408023     2.107147     0.023775
H       -1.369312     2.114761     0.035985
H       -0.030930    -2.115254    -0.040480
5
Step=33 Time=6.600 State=1 Energy=-130.19788646 Pop=[0.5789 0.4211]
C        0.028141     1.237364    -0.024059
N       -0.019288    -1.114606     0.010154
H        1.381766     2.089505     0.025219
H       -1.341860     2.097425     0.037684
H       -0.031951    -2.118356    -0.044690
5
Step=34 Time=6.800 State=1 Energy=-130.21417719 Pop=[0.4624 0.5376]
C        0.028979     1.237689    -0.025059
N       -0.019854    -1.112156     0.010826
H        1.354283     2.071148     0.026712
H       -1.313175     2.079372     0.039416
H       -0.032978    -2.122347    -0.049198
5
Step=35 Time=7.000 State=1 Energy=-130.22681216 Pop=[0.3491 0.6509]
C        0.029814     1.238077    -0.026077
N       -0.020420    -1.109599     0.011529
H        1.325549     2.052062     0.028247
H       -1.283230     2.060588     0.041174
H       -0.034011    -2.127107    -0.053997
5
Step=36 Time=7.200 State=1 Energy=-130.23304017 Pop=[0.4578 0.5422]
C        0.031284     1.238465    -0.027069
N       -0.022254    -1.108041     0.012074
H        1.294968     2.033170     0.030598
H       -1.258875     2.042566     0.042389
H       -0.014556    -2.119022    -0.058364
5
Step=37 Time=7.400 State=1 Energy=-130.15561744 Pop=[0.4689 0.5311]
C        0.032750     1.238921    -0.028075
N       -0.024090    -1.106380     0.012650
H        1.263111     2.013532     0.032976
H       -1.233218     2.023789     0.043609
H        0.004920    -2.111690    -0.063018
5
Step=38 Time=7.600 State=1 Energy=-130.09536990 Pop=[0.4008 0.5992]
C        0.034213     1.239448    -0.029094
N       -0.025929    -1.104610     0.013257
H        1.229981     1.993146     0.035370
H       -1.206248     2.004248     0.044823
H        0.024449    -2.105199    -0.067967
5
Step=39 Time=7.800 State=1 Energy=-130.04296884 Pop=[0.3954 0.6046]
C        0.035670     1.240047    -0.030122
N       -0.027775    -1.102728     0.013895
H        1.195602     1.972021     0.037770
H       -1.177962     1.983938     0.046017
H        0.044066    -2.099615    -0.073220
5
Step=40 Time=8.000 State=1 Energy=-129.99507684 Pop=[0.4192 0.5808]
C        0.037120     1.240717    -0.031156
N       -0.029632    -1.100732     0.014564
H        1.160019     1.950174     0.040165
H       -1.148371     1.962856     0.047177
H        0.063816    -2.094972    -0.078785
5
Step=41 Time=8.200 State=1 Energy=-129.95035036 Pop=[0.4026 0.5974]
C        0.038560     1.241456    -0.032195
N       -0.031503    -1.098622     0.015264
H        1.123310     1.927642     0.042543
H       -1.117503     1.941005     0.048288
H        0.083749    -2.091276    -0.084671
5
Step=42 Time=8.400 State=1 Energy=-129.90588821 Pop=[0.4043 0.5957]
C        0.039986     1.242258    -0.033234
N       -0.033397    -1.096401     0.015995
H        1.085597     1.904481     0.044888
H       -1.085410     1.918392     0.049332
H        0.103927    -2.088497    -0.090888
5
Step=43 Time=8.600 State=1 Energy=-129.86399086 Pop=[0.4159 0.5841]
C        0.041393     1.243116    -0.034270
N       -0.035319    -1.094072     0.016759
H        1.047056     1.880775     0.047186
H       -1.052176     1.895033     0.050291
H        0.124427    -2.086576    -0.097447
5
Step=44 Time=8.800 State=1 Energy=-129.83588338 Pop=[0.4035 0.5965]
C        0.042774     1.244015    -0.035300
N       -0.037281    -1.091641     0.017554
H        1.007943     1.856645     0.049419
H       -1.017930     1.870952     0.051147
H        0.145338    -2.085417    -0.104362
5
Step=45 Time=9.000 State=1 Energy=-129.82999575 Pop=[0.4033 0.5967]
C        0.044119     1.244932    -0.036321
N       -0.039293    -1.089113     0.018383
H        0.968609     1.832264     0.051578
H       -0.982852     1.846190     0.051880
H        0.166763    -2.084888    -0.111653
5
Step=46 Time=9.200 State=1 Energy=-129.86241575 Pop=[0.3899 0.6101]
C        0.045415     1.245835    -0.037333
N       -0.041367    -1.086494     0.019249
H        0.929532     1.807866     0.053662
H       -0.947199     1.820810     0.052477
H        0.188806    -2.084827    -0.119349
5
Step=47 Time=9.400 State=1 Energy=-129.95599556 Pop=[0.4057 0.5943]
C        0.046644     1.246682    -0.038339
N       -0.043516    -1.083790     0.020154
H        0.891341     1.783753     0.055698
H       -0.911316     1.794899     0.052938
H        0.211582    -2.085035    -0.127484
5
Step=48 Time=9.600 State=1 Energy=-130.13680130 Pop=[0.3978 0.6022]
C        0.047782     1.247415    -0.039356
N       -0.045753    -1.081006     0.021099
H        0.854832     1.760335     0.057797
H       -0.875651     1.768595     0.053340
H        0.235186    -2.085297    -0.136027
5
Step=49 Time=9.800 State=1 Energy=-130.42393910 Pop=[0.3953 0.6047]
C        0.048796     1.247962    -0.040393
N       -0.048074    -1.078154     0.022076
H        0.820954     1.738199     0.060048
H       -0.840748     1.742191     0.053713
H        0.259573    -2.085471    -0.144927
5
Step=50 Time=10.000 State=1 Energy=-130.81550832 Pop=[0.3862 0.6138]
C        0.049650     1.248237    -0.041472
N       -0.050478    -1.075242     0.023085
H        0.790827     1.717991     0.062621
H       -0.807302     1.716002     0.054147
H        0.284726    -2.085383    -0.154143
5
Step=51 Time=10.200 State=1 Energy=-131.28295502 Pop=[0.3976 0.6024]
C        0.050314     1.248144    -0.042619
N       -0.052963    -1.072278     0.024122
H        0.765671     1.700426     0.065720
H       -0.776159     1.690423     0.054747
H        0.310596    -2.084868    -0.163630
5
Step=52 Time=10.400 State=1 Energy=-131.77756617 Pop=[0.3864 0.6136]
C        0.050769     1.247578    -0.043864
N       -0.055524    -1.069270     0.025184
H        0.746696     1.686213     0.069577
H       -0.748303     1.665912     0.055646
H        0.337120    -2.083776    -0.173347
5
Step=53 Time=10.600 State=1 Energy=-132.24534185 Pop=[0.3969 0.6031]
C        0.051018     1.246444    -0.045241
N       -0.058155    -1.066223     0.026268
H        0.734947     1.675960     0.074433
H       -0.724827     1.642963     0.057001
H        0.364226    -2.081966    -0.183256
5
Step=54 Time=10.800 State=1 Energy=-132.64000187 Pop=[0.3867 0.6133]
C        0.051096     1.244660    -0.046785
N       -0.060850    -1.063141     0.027373
H        0.731124     1.670063     0.080509
H       -0.706857     1.622065     0.059003
H        0.391844    -2.079308    -0.193329
5
Step=55 Time=11.000 State=1 Energy=-132.92979435 Pop=[0.3972 0.6028]
C        0.051074     1.242171    -0.048537
N       -0.063609    -1.060021     0.028502
H        0.735452     1.668610     0.088008
H       -0.695444     1.603623     0.061877
H        0.419933    -2.075667    -0.203575
5
Step=56 Time=11.200 State=1 Energy=-133.09839791 Pop=[0.3860 0.6140]
C        0.051060     1.238926    -0.050576
N       -0.066452    -1.056828     0.029686
H        0.747653     1.671299     0.097301
H       -0.691472     1.587796     0.066010
H        0.448678    -2.070791    -0.214200
5
Step=57 Time=11.400 State=1 Energy=-133.14378308 Pop=[0.3966 0.6034]
C        0.051116     1.235056    -0.052770
N       -0.069297    -1.053669     0.030846
H        0.766865     1.677892     0.107621
H       -0.695191     1.575068     0.071063
H        0.477283    -2.065000    -0.224590
5
Step=58 Time=11.600 State=1 Energy=-133.07142807 Pop=[0.3882 0.6118]
C        0.051341     1.230592    -0.055162
N       -0.072157    -1.050516     0.032003
H        0.792021     1.687680     0.119074
H       -0.706621     1.565252     0.077291
H        0.505873    -2.058160    -0.234882
5
Step=59 Time=11.800 State=1 Energy=-132.90145536 Pop=[0.3918 0.6082]
C        0.051796     1.225608    -0.057735
N       -0.075031    -1.047367     0.033155
H        0.821914     1.699952     0.131453
H       -0.725290     1.558065     0.084689
H        0.534401    -2.050183    -0.245055
5
Step=60 Time=12.000 State=1 Energy=-132.66411417 Pop=[0.3968 0.6032]
C        0.052512     1.220183    -0.060461
N       -0.077916    -1.044216     0.034301
H        0.855347     1.714015     0.144522
H       -0.750351     1.553090     0.093169
H        0.562824    -2.040983    -0.255093
5
Step=61 Time=12.200 State=1 Energy=-132.39995090 Pop=[0.3808 0.6192]
C        0.053490     1.214401    -0.063308
N       -0.080809    -1.041060     0.035440
H        0.891236     1.729252     0.158046
H       -0.780725     1.549850     0.102587
H        0.591090    -2.030492    -0.264973
5
Step=62 Time=12.400 State=1 Energy=-132.15425909 Pop=[0.4059 0.5941]
C        0.054710     1.208335    -0.066242
N       -0.083705    -1.037896     0.036568
H        0.928654     1.745146     0.171809
H       -0.815245     1.547870     0.112759
H        0.619141    -2.018657    -0.274668
5
Step=63 Time=12.600 State=1 Energy=-131.96602618 Pop=[0.4340 0.5660]
C        0.056141     1.202050    -0.069231
N       -0.086600    -1.034720     0.037683
H        0.966842     1.761280     0.185629
H       -0.852783     1.546722     0.123495
H        0.646910    -2.005443    -0.284150
5
Step=64 Time=12.800 State=1 Energy=-131.85753928 Pop=[0.4166 0.5834]
C        0.057745     1.195598    -0.072247
N       -0.089487    -1.031531     0.038783
H        1.005205     1.777332     0.199358
H       -0.892324     1.546049     0.134611
H        0.674328    -1.990827    -0.293390
5
Step=65 Time=13.000 State=1 Energy=-131.82931646 Pop=[0.4112 0.5888]
C        0.059488     1.189020    -0.075264
N       -0.092360    -1.028325     0.039865
H        1.043284     1.793061     0.212878
H       -0.933002     1.545565     0.145945
H        0.701327    -1.974797    -0.302358
5
Step=66 Time=13.200 State=1 Energy=-131.86609089 Pop=[0.4303 0.5697]
C        0.061337     1.182343    -0.078263
N       -0.095213    -1.025099     0.040924
H        1.080732     1.808288     0.226101
H       -0.974111     1.545053     0.157359
H        0.727836    -1.957351    -0.311025
5
Step=67 Time=13.400 State=1 Energy=-131.94511792 Pop=[0.4113 0.5887]
C        0.063267     1.175589    -0.081228
N       -0.098040    -1.021849     0.041960
H        1.117296     1.822886     0.238959
H       -1.015092     1.544358     0.168740
H        0.753788    -1.938493    -0.319365
5
Step=68 Time=13.600 State=1 Energy=-132.05349951 Pop=[0.4272 0.5728]
C        0.065253     1.168770    -0.084147
N       -0.100835    -1.018572     0.042968
H        1.152789     1.836765     0.251403
H       -1.055512     1.543371     0.179997
H        0.779117    -1.918235    -0.327351
5
Step=69 Time=13.800 State=1 Energy=-132.18621737 Pop=[0.4163 0.5837]
C        0.067279     1.161896    -0.087008
N       -0.103591    -1.015265     0.043947
H        1.187082     1.849867     0.263400
H       -1.095044     1.542019     0.191063
H        0.803759    -1.896593    -0.334957
5
Step=70 Time=14.000 State=1 Energy=-132.33230126 Pop=[0.4209 0.5791]
C        0.069329     1.154969    -0.089806
N       -0.106303    -1.011923     0.044894
H        1.220084     1.862153     0.274924
H       -1.133444     1.540258     0.201885
H        0.827653    -1.873587    -0.342161
5
Step=71 Time=14.200 State=1 Energy=-132.48700912 Pop=[0.4122 0.5878]
C        0.071391     1.147992    -0.092535
N       -0.108964    -1.008542     0.045806
H        1.251736     1.873599     0.285961
H       -1.170536     1.538063     0.212422
H        0.850738    -1.849242    -0.348939
5
Step=72 Time=14.400 State=1 Energy=-132.65021899 Pop=[0.4271 0.5729]
C        0.073456     1.140964    -0.095190
N       -0.111569    -1.005118     0.046681
H        1.282003     1.884195     0.296502
H       -1.206194     1.535425     0.222648
H        0.872958    -1.823589    -0.355269
5
Step=73 Time=14.600 State=1 Energy=-132.81620926 Pop=[0.4333 0.5667]
C        0.075516     1.133881    -0.097768
N       -0.114111    -1.001647     0.047516
H        1.310864     1.893937     0.306540
H       -1.240332     1.532343     0.232541
H        0.894257    -1.796659    -0.361132
5
Step=74 Time=14.800 State=1 Energy=-132.98616917 Pop=[0.3946 0.6054]
C        0.077566     1.126743    -0.100266
N       -0.116587    -0.998124     0.048310
H        1.338316     1.902826     0.316076
H       -1.272891     1.528824     0.242087
H        0.914583    -1.768487    -0.366508
5
Step=75 Time=15.000 State=1 Energy=-133.15277669 Pop=[0.4468 0.5532]
C        0.079598     1.119544    -0.102685
N       -0.118989    -0.994544     0.049060
H        1.364360     1.910870     0.325109
H       -1.303838     1.524879     0.251277
H        0.933886    -1.739112    -0.371378
5
Step=76 Time=15.200 State=1 Energy=-133.31113401 Pop=[0.4033 0.5967]
C        0.081609     1.112280    -0.105021
N       -0.121312    -0.990902     0.049764
H        1.389007     1.918075     0.333643
H       -1.333153     1.520522     0.260104
H        0.952117    -1.708575    -0.375726
5
Step=77 Time=15.400 State=1 Energy=-133.45962355 Pop=[0.4293 0.5707]
C        0.083596     1.104949    -0.107274
N       -0.123552    -0.987194     0.050420
H        1.412271     1.924451     0.341681
H       -1.360830     1.515769     0.268565
H        0.969232    -1.676920    -0.379535
5
Step=78 Time=15.600 State=1 Energy=-133.59862626 Pop=[0.4191 0.5809]
C        0.085553     1.097544    -0.109443
N       -0.125704    -0.983415     0.051026
H        1.434169     1.930009     0.349229
H       -1.386872     1.510636     0.276659
H        0.985186    -1.644192    -0.382792
5
Step=79 Time=15.800 State=1 Energy=-133.72947813 Pop=[0.4185 0.5815]
C        0.087479     1.090062    -0.111529
N       -0.127762    -0.979559     0.051581
H        1.454722     1.934760     0.356291
H       -1.411285     1.505140     0.284384
H        0.999939    -1.610440    -0.385481
5
Step=80 Time=16.000 State=1 Energy=-133.85384662 Pop=[0.4252 0.5748]
C        0.089370     1.082499    -0.113529
N       -0.129722    -0.975622     0.052082
H        1.473948     1.938714     0.362872
H       -1.434083     1.499299     0.291743
H        1.013453    -1.575713    -0.387591
5
Step=81 Time=16.200 State=1 Energy=-133.97341203 Pop=[0.4364 0.5636]
C        0.088094     1.086888    -0.114413
N       -0.129100    -0.980968     0.052272
H        1.453267     1.916471     0.370728
H       -1.406148     1.507728     0.289619
H        1.016126    -1.541930    -0.391136
5
Step=82 Time=16.400 State=1 Energy=-133.97624122 Pop=[0.4203 0.5797]
C        0.086780     1.091194    -0.115208
N       -0.128374    -0.986224     0.052406
H        1.431256     1.893438     0.378083
H       -1.376601     1.515811     0.287117
H        1.017510    -1.507280    -0.394082
5
Step=83 Time=16.600 State=1 Energy=-133.97493921 Pop=[0.4450 0.5550]
C        0.085431     1.095423    -0.115912
N       -0.127543    -0.991389     0.052485
H        1.407892     1.869611     0.384911
H       -1.345430     1.523530     0.284224
H        1.017597    -1.471824    -0.396425
5
Step=84 Time=16.800 State=1 Energy=-133.96784732 Pop=[0.4078 0.5922]
C        0.084046     1.099576    -0.116521
N       -0.126606    -0.996457     0.052507
H        1.383158     1.844991     0.391185
H       -1.312633     1.530864     0.280927
H        1.016384    -1.435624    -0.398161
5
Step=85 Time=17.000 State=1 Energy=-133.95329334 Pop=[0.4589 0.5411]
C        0.082626     1.103658    -0.117032
N       -0.125564    -1.001428     0.052474
H        1.357036     1.819578     0.396877
H       -1.278211     1.537796     0.277215
H        1.013875    -1.398747    -0.399290
5
Step=86 Time=17.200 State=1 Energy=-133.92988646 Pop=[0.4018 0.5982]
C        0.081174     1.107671    -0.117441
N       -0.124416    -1.006296     0.052385
H        1.329519     1.793379     0.401959
H       -1.242176     1.544307     0.273075
H        1.010081    -1.361261    -0.399814
5
Step=87 Time=17.400 State=1 Energy=-133.89705913 Pop=[0.4404 0.5596]
C        0.079691     1.111618    -0.117746
N       -0.123165    -1.011058     0.052240
H        1.300603     1.766402     0.406404
H       -1.204556     1.550379     0.268500
H        1.005022    -1.323239    -0.399739
5
Step=88 Time=17.600 State=1 Energy=-133.85590921 Pop=[0.4496 0.5504]
C        0.078179     1.115501    -0.117944
N       -0.121811    -1.015711     0.052040
H        1.270297     1.738662     0.410185
H       -1.165392     1.555998     0.263484
H        0.998728    -1.284757    -0.399074
5
Step=89 Time=17.800 State=1 Energy=-133.80997649 Pop=[0.4463 0.5537]
C        0.076643     1.119319    -0.118033
N       -0.120359    -1.020249     0.051787
H        1.238623     1.710177     0.413280
H       -1.124752     1.561157     0.258025
H        0.991240    -1.245891    -0.397835
5
Step=90 Time=18.000 State=1 Energy=-133.75756282 Pop=[0.4359 0.5641]
C        0.075087     1.123073    -0.118011
N       -0.118810    -1.024670     0.051481
H        1.205622     1.680978     0.415672
H       -1.082732     1.565854     0.252130
H        0.982610    -1.206718    -0.396040
5
Step=91 Time=18.200 State=1 Energy=-133.72364890 Pop=[0.4094 0.5906]
C        0.073517     1.126760    -0.117880
N       -0.117170    -1.028969     0.051124
H        1.171356     1.651101     0.417350
H       -1.039468     1.570102     0.245815
H        0.972902    -1.167317    -0.393712
5
Step=92 Time=18.400 State=1 Energy=-133.70378549 Pop=[0.4538 0.5462]
C        0.071939     1.130376    -0.117641
N       -0.115445    -1.033142     0.050718
H        1.135919     1.620596     0.418317
H       -0.995143     1.573933     0.239110
H        0.962195    -1.127764    -0.390882
5
Step=93 Time=18.600 State=1 Energy=-133.71399332 Pop=[0.5735 0.4265]
C        0.070365     1.133911    -0.117300
N       -0.113640    -1.037185     0.050266
H        1.099440     1.589525     0.418593
H       -0.950005     1.577403     0.232062
H        0.950580    -1.088133    -0.387584
5
Step=94 Time=18.800 State=1 Energy=-133.78708244 Pop=[0.4904 0.5096]
C        0.068805     1.137354    -0.116868
N       -0.111763    -1.041096     0.049770
H        1.062099     1.557969     0.418219
H       -0.904376     1.580607     0.224746
H        0.938160    -1.048492    -0.383859
5
Step=95 Time=19.000 State=1 Energy=-133.94223818 Pop=[0.5183 0.4817]
C        0.067275     1.140686    -0.116358
N       -0.109823    -1.044871     0.049234
H        1.024134     1.526023     0.417273
H       -0.858671     1.583686     0.217266
H        0.925050    -1.008906    -0.379751
5
Step=96 Time=19.200 State=1 Energy=-134.17324453 Pop=[0.4573 0.5427]
C        0.065791     1.143884    -0.115793
N       -0.107827    -1.048508     0.048660
H        0.985858     1.493802     0.415870
H       -0.813411     1.586846     0.209765
H        0.911376    -0.969430    -0.375311
5
Step=97 Time=19.400 State=1 Energy=-134.48096197 Pop=[0.4097 0.5903]
C        0.064375     1.146914    -0.115204
N       -0.105786    -1.052007     0.048053
H        0.947668     1.461441     0.414187
H       -0.769234     1.590370     0.202434
H        0.897268    -0.930111    -0.370589
5
Step=98 Time=19.600 State=1 Energy=-134.85455324 Pop=[0.4998 0.5002]
C        0.063046     1.149735    -0.114629
N       -0.103709    -1.055366     0.047416
H        0.910065     1.429088     0.412464
H       -0.726890     1.594634     0.195510
H        0.882863    -0.890985    -0.365641
5
Step=99 Time=19.800 State=1 Energy=-135.29492860 Pop=[0.5188 0.4812]
C        0.061826     1.152297    -0.114122
N       -0.101607    -1.058586     0.046754
H        0.873652     1.396897     0.411029
H       -0.687225     1.600111     0.189282
H        0.868291    -0.852081    -0.360518
5
Step=100 Time=20.000 State=1 Energy=-135.78191389 Pop=[0.4091 0.5909]
C        0.060730     1.154543    -0.113743
N       -0.099487    -1.061669     0.046069
H        0.839132     1.365019     0.410295
H       -0.651134     1.607364     0.184072
H        0.853682    -0.813415    -0.355272
5
Step=101 Time=20.200 State=1 Energy=-136.28565887 Pop=[0.3933 0.6067]
C        0.058235     1.154185    -0.113931
N       -0.097577    -1.059270     0.046224
H        0.805252     1.330456     0.410246
H       -0.603996     1.616708     0.179015
H        0.846571    -0.819488    -0.356380
5
Step=102 Time=20.400 State=1 Energy=-136.87977574 Pop=[0.4880 0.5120]
C        0.055902     1.153361    -0.114409
N       -0.095668    -1.056738     0.046364
H        0.774882     1.296410     0.411971
H       -0.562482     1.629440     0.175833
H        0.839650    -0.825771    -0.357454
5
Step=103 Time=20.600 State=1 Energy=-137.43874799 Pop=[0.4994 0.5006]
C        0.053746     1.151987    -0.115267
N       -0.093771    -1.054076     0.046491
H        0.748825     1.262884     0.416067
H       -0.527531     1.646565     0.175005
H        0.833036    -0.832225    -0.358545
5
Step=104 Time=20.800 State=1 Energy=-137.91319889 Pop=[0.4340 0.5660]
C        0.051756     1.149999    -0.116582
N       -0.091897    -1.051287     0.046609
H        0.727748     1.229801     0.423097
H       -0.499650     1.668924     0.176874
H        0.826849    -0.838810    -0.359701
5
Step=105 Time=21.000 State=1 Energy=-138.26493720 Pop=[0.4300 0.5700]
C        0.049895     1.147371    -0.118400
N       -0.090056    -1.048373     0.046721
H        0.712096     1.197003     0.433509
H       -0.478802     1.696999     0.181556
H        0.821210    -0.845487    -0.360975
5
Step=106 Time=21.200 State=1 Energy=-138.47423278 Pop=[0.4739 0.5261]
C        0.048104     1.144121    -0.120730
N       -0.088260    -1.045339     0.046831
H        0.702020     1.164276     0.447554
H       -0.464428     1.730795     0.188902
H        0.816238    -0.852220    -0.362419
5
Step=107 Time=21.400 State=1 Energy=-138.54444766 Pop=[0.4775 0.5225]
C        0.046324     1.140308    -0.123542
N       -0.086519    -1.042188     0.046943
H        0.697349     1.131394     0.465246
H       -0.455602     1.769840     0.198539
H        0.812045    -0.858975    -0.364083
5
Step=108 Time=21.600 State=1 Energy=-138.50003931 Pop=[0.4397 0.5603]
C        0.044504     1.136019    -0.126772
N       -0.084842    -1.038922     0.047059
H        0.697633     1.098162     0.486351
H       -0.451234     1.813313     0.209953
H        0.808734    -0.865723    -0.366016
5
Step=109 Time=21.800 State=1 Energy=-138.37874441 Pop=[0.4313 0.5687]
C        0.043186     1.131464    -0.130438
N       -0.083211    -1.036919     0.046942
H        0.702369     1.065525     0.511651
H       -0.454745     1.861466     0.223147
H        0.804468    -0.857527    -0.366456
5
Step=110 Time=22.000 State=1 Energy=-138.20846993 Pop=[0.4237 0.5763]
C        0.041779     1.126628    -0.134343
N       -0.081660    -1.034809     0.046834
H        0.710624     1.032369     0.539350
H       -0.460652     1.911933     0.237009
H        0.801243    -0.849281    -0.367240
5
Step=111 Time=22.200 State=1 Energy=-138.05709525 Pop=[0.4295 0.5705]
C        0.040284     1.121594    -0.138396
N       -0.080193    -1.032594     0.046737
H        0.721613     0.998732     0.568823
H       -0.468165     1.963739     0.251086
H        0.799107    -0.840967    -0.368396
5
Step=112 Time=22.400 State=1 Energy=-137.90829886 Pop=[0.4275 0.5725]
C        0.038716     1.116422    -0.142517
N       -0.078815    -1.030279     0.046651
H        0.734609     0.964703     0.599457
H       -0.476689     2.016085     0.265038
H        0.798087    -0.832574    -0.369939
5
Step=113 Time=22.600 State=1 Energy=-137.77825907 Pop=[0.4291 0.5709]
C        0.037091     1.111157    -0.146638
N       -0.077527    -1.027865     0.046576
H        0.748981     0.930412     0.630703
H       -0.485792     2.068351     0.278622
H        0.798186    -0.824096    -0.371879
5
Step=114 Time=22.800 State=1 Energy=-137.66183593 Pop=[0.4192 0.5808]
C        0.035429     1.105828    -0.150706
N       -0.076327    -1.025354     0.046512
H        0.764207     0.896000     0.662094
H       -0.495166     2.120073     0.291678
H        0.799381    -0.815531    -0.374216
5
Step=115 Time=23.000 State=1 Energy=-137.55183098 Pop=[0.3932 0.6068]
C        0.033748     1.100453    -0.154681
N       -0.075214    -1.022747     0.046458
H        0.779866     0.861609     0.693258
H       -0.504600     2.170916     0.304107
H        0.801629    -0.806887    -0.376942
5
Step=116 Time=23.200 State=1 Energy=-137.44752611 Pop=[0.4143 0.5857]
C        0.032065     1.095043    -0.158535
N       -0.074184    -1.020047     0.046412
H        0.795633     0.827372     0.723912
H       -0.513948     2.220648     0.315858
H        0.804862    -0.798176    -0.380047
5
Step=117 Time=23.400 State=1 Energy=-137.34913389 Pop=[0.5227 0.4773]
C        0.030392     1.089603    -0.162248
N       -0.073230    -1.017252     0.046373
H        0.811251     0.793406     0.753855
H       -0.523109     2.269116     0.326917
H        0.808994    -0.789420    -0.383520
5
Step=118 Time=23.600 State=1 Energy=-137.25734783 Pop=[0.6346 0.3654]
C        0.028739     1.084136    -0.165812
N       -0.072344    -1.014365     0.046341
H        0.826521     0.759809     0.782967
H       -0.532009     2.316227     0.337298
H        0.813923    -0.780652    -0.387355
5
Step=119 Time=23.800 State=1 Energy=-137.17300118 Pop=[0.6022 0.3978]
C        0.027113     1.078644    -0.169224
N       -0.071517    -1.011385     0.046315
H        0.841287     0.726656     0.811189
H       -0.540593     2.361931     0.347038
H        0.819536    -0.771913    -0.391553
5
Step=120 Time=24.000 State=1 Energy=-137.09695201 Pop=[0.4063 0.5937]
C        0.025518     1.073125    -0.172485
N       -0.070738    -1.008310     0.046294
H        0.855434     0.694005     0.838497
H       -0.548818     2.406212     0.356183
H        0.825713    -0.763248    -0.396103
5
Step=121 Time=24.200 State=1 Energy=-137.03025787 Pop=[0.6169 0.3831]
C        0.023956     1.067578    -0.175600
N       -0.069997    -1.005138     0.046277
H        0.868886     0.661891     0.864880
H       -0.556665     2.449075     0.364777
H        0.832338    -0.754701    -0.400978
5
Step=122 Time=24.400 State=1 Energy=-136.97375229 Pop=[0.5084 0.4916]
C        0.022428     1.061997    -0.178571
N       -0.069284    -1.001866     0.046261
H        0.881595     0.630335     0.890330
H       -0.564128     2.490537     0.372863
H        0.839296    -0.746310    -0.406139
5
Step=123 Time=24.600 State=1 Energy=-136.92687030 Pop=[0.4828 0.5172]
C        0.017741     1.057823    -0.181073
N       -0.069977    -0.996554     0.045460
H        0.909728     0.610253     0.910660
H       -0.543288     2.508257     0.382992
H        0.857317    -0.770564    -0.405705
5
Step=124 Time=24.800 State=1 Energy=-136.81392955 Pop=[0.3486 0.6514]
C        0.013096     1.053609    -0.183439
N       -0.070680    -0.991136     0.044654
H        0.937061     0.590727     0.930051
H       -0.522101     2.524617     0.392669
H        0.875434    -0.795015    -0.405452
5
Step=125 Time=25.000 State=1 Energy=-136.71092494 Pop=[0.2381 0.7619]
C        0.008497     1.049351    -0.185671
N       -0.071384    -0.985608     0.043842
H        0.963573     0.571738     0.948508
H       -0.500602     2.539623     0.401914
H        0.893512    -0.819660    -0.405317
5
Step=126 Time=25.200 State=1 Energy=-136.61731928 Pop=[0.2471 0.7529]
C        0.006595     1.043066    -0.188745
N       -0.070652    -0.981243     0.043907
H        0.975224     0.542395     0.971160
H       -0.505243     2.575961     0.408380
H        0.900636    -0.817552    -0.411339
5
Step=127 Time=25.400 State=1 Energy=-136.60620389 Pop=[0.1804 0.8196]
C        0.004744     1.036732    -0.191695
N       -0.069905    -0.976764     0.043961
H        0.986051     0.513560     0.992898
H       -0.509618     2.610997     0.414461
H        0.907504    -0.815638    -0.417377
5
Step=128 Time=25.600 State=1 Energy=-136.60036744 Pop=[0.1107 0.8893]
C        0.002941     1.030343    -0.194526
N       -0.069137    -0.972169     0.044001
H        0.996063     0.485217     1.013734
H       -0.513738     2.644780     0.420187
H        0.914046    -0.813926    -0.423390
5
Step=129 Time=25.800 State=1 Energy=-136.59843189 Pop=[0.1304 0.8696]
C       -0.000802     1.026925    -0.195368
N       -0.070042    -0.966500     0.043636
H        1.017698     0.473930     1.026687
H       -0.492698     2.653635     0.426212
H        0.929784    -0.847094    -0.427833
5
Step=130 Time=26.000 State=1 Energy=-136.51188358 Pop=[0.1130 0.8870]
C       -0.004493     1.023447    -0.196099
N       -0.070913    -0.960714     0.043252
H        1.038530     0.463100     1.038758
H       -0.471445     2.661292     0.431923
H        0.945011    -0.880431    -0.432155
5
Step=131 Time=26.200 State=1 Energy=-136.42653127 Pop=[0.1382 0.8618]
C       -0.006872     1.016527    -0.198613
N       -0.070191    -0.955058     0.042626
H        1.048025     0.434724     1.056911
H       -0.465686     2.687775     0.438944
H        0.953907    -0.881515    -0.433481
5
Step=132 Time=26.400 State=1 Energy=-136.43116707 Pop=[0.1361 0.8639]
C       -0.009197     1.009540    -0.201024
N       -0.069422    -0.949284     0.041979
H        1.056734     0.406767     1.074204
H       -0.459755     2.713116     0.445685
H        0.962119    -0.882715    -0.434598
5
Step=133 Time=26.600 State=1 Energy=-136.43897076 Pop=[0.1170 0.8830]
C       -0.011468     1.002479    -0.203336
N       -0.068601    -0.943390     0.041310
H        1.064670     0.379210     1.090651
H       -0.453668     2.737364     0.452172
H        0.969601    -0.884025    -0.435479
5
Step=134 Time=26.800 State=1 Energy=-136.45022256 Pop=[0.1164 0.8836]
C       -0.013688     0.995339    -0.205554
N       -0.067725    -0.937373     0.040617
H        1.071845     0.352032     1.106259
H       -0.447441     2.760575     0.458426
H        0.976315    -0.885435    -0.436099
5
Step=135 Time=27.000 State=1 Energy=-136.46521241 Pop=[0.1317 0.8683]
C       -0.015857     0.988114    -0.207680
N       -0.066790    -0.931231     0.039901
H        1.078273     0.325211     1.121038
H       -0.441088     2.782808     0.464472
H        0.982229    -0.886937    -0.436435
5
Step=136 Time=27.200 State=1 Energy=-136.48419757 Pop=[0.1323 0.8677]
C       -0.017978     0.980795    -0.209720
N       -0.065793    -0.924962     0.039161
H        1.083965     0.298720     1.134994
H       -0.434620     2.804132     0.470334
H        0.987318    -0.888522    -0.436464
5
Step=137 Time=27.400 State=1 Energy=-136.50738183 Pop=[0.1470 0.8530]
C       -0.020051     0.973376    -0.211677
N       -0.064730    -0.918562     0.038396
H        1.088931     0.272530     1.148132
H       -0.428050     2.824619     0.476037
H        0.991564    -0.890181    -0.436164
5
Step=138 Time=27.600 State=1 Energy=-136.53490677 Pop=[0.1488 0.8512]
C       -0.022081     0.965847    -0.213554
N       -0.063598    -0.912029     0.037607
H        1.093182     0.246607     1.160456
H       -0.421389     2.844347     0.481606
H        0.994953    -0.891906    -0.435514
5
Step=139 Time=27.800 State=1 Energy=-136.56684845 Pop=[0.1339 0.8661]
C       -0.024070     0.958200    -0.215357
N       -0.062395    -0.905358     0.036793
H        1.096724     0.220914     1.171969
H       -0.414647     2.863394     0.487064
H        0.997475    -0.893689    -0.434497
5
Step=140 Time=28.000 State=1 Energy=-136.60321225 Pop=[0.1376 0.8624]
C       -0.023665     0.956132    -0.217323
N       -0.063131    -0.901738     0.037714
H        1.094070     0.203061     1.178344
H       -0.407321     2.878783     0.492132
H        0.998990    -0.929907    -0.453325
5
Step=141 Time=28.200 State=1 Energy=-136.52668092 Pop=[0.1304 0.8696]
C       -0.023223     0.953935    -0.219222
N       -0.063786    -0.897979     0.038610
H        1.090718     0.185359     1.183900
H       -0.399927     2.893609     0.497122
H        0.999572    -0.966118    -0.471710
5
Step=142 Time=28.400 State=1 Energy=-136.45182446 Pop=[0.1280 0.8720]
C       -0.022748     0.951607    -0.221055
N       -0.064354    -0.894082     0.039479
H        1.086669     0.167764     1.188626
H       -0.392471     2.907914     0.502046
H        0.999167    -1.002259    -0.489593
5
Step=143 Time=28.600 State=1 Energy=-136.37921606 Pop=[0.1290 0.8710]
C       -0.022239     0.949143    -0.222826
N       -0.064830    -0.890050     0.040318
H        1.081920     0.150233     1.192508
H       -0.384955     2.921737     0.506914
H        0.997726    -1.038265    -0.506919
5
Step=144 Time=28.800 State=1 Energy=-136.30941727 Pop=[0.1279 0.8721]
C       -0.021701     0.946543    -0.224538
N       -0.065207    -0.885883     0.041129
H        1.076470     0.132717     1.195535
H       -0.377384     2.935117     0.511736
H        0.995212    -1.074071    -0.523637
5
Step=145 Time=29.000 State=1 Energy=-136.24296753 Pop=[0.1315 0.8685]
C       -0.021134     0.943804    -0.226196
N       -0.065482    -0.881585     0.041911
H        1.070311     0.115163     1.197693
H       -0.369764     2.948089     0.516520
H        0.991590    -1.109608    -0.539703
5
Step=146 Time=29.200 State=1 Energy=-136.18038004 Pop=[0.1364 0.8636]
C       -0.020539     0.940925    -0.227802
N       -0.065650    -0.877157     0.042664
H        1.063434     0.097516     1.198969
H       -0.362104     2.960687     0.521277
H        0.986834    -1.144808    -0.555081
5
Step=147 Time=29.400 State=1 Energy=-136.12213552 Pop=[0.1291 0.8709]
C       -0.019918     0.937905    -0.229362
N       -0.065706    -0.872601     0.043393
H        1.055824     0.079709     1.199349
H       -0.354420     2.972945     0.526016
H        0.980923    -1.179602    -0.569747
5
Step=148 Time=29.600 State=1 Energy=-136.06868695 Pop=[0.1233 0.8767]
C       -0.017979     0.933738    -0.231199
N       -0.065657    -0.868225     0.044718
H        1.046943     0.062467     1.197820
H       -0.359814     2.991807     0.530658
H        0.971389    -1.206353    -0.588192
5
Step=149 Time=29.800 State=1 Energy=-136.03725198 Pop=[0.1308 0.8692]
C       -0.016003     0.929422    -0.233010
N       -0.065489    -0.863715     0.046035
H        1.037268     0.044853     1.195380
H       -0.365297     3.010439     0.535336
H        0.960637    -1.232569    -0.605961
5
Step=150 Time=30.000 State=1 Energy=-136.01273942 Pop=[0.1350 0.8650]
C       -0.013992     0.924952    -0.234801
N       -0.065196    -0.859070     0.047348
H        1.026764     0.026795     1.192019
H       -0.370883     3.028883     0.540057
H        0.948656    -1.258211    -0.623054
5
Step=151 Time=30.200 State=1 Energy=-135.99550406 Pop=[0.1434 0.8566]
C       -0.011946     0.920329    -0.236572
N       -0.064773    -0.854289     0.048660
H        1.015391     0.008249     1.187728
H       -0.376570     3.047160     0.544822
H        0.935445    -1.283244    -0.639472
5
Step=152 Time=30.400 State=1 Energy=-135.98584955 Pop=[0.1450 0.8550]
C       -0.009869     0.915552    -0.238327
N       -0.064217    -0.849375     0.049974
H        1.003112    -0.010799     1.182500
H       -0.382355     3.065273     0.549626
H        0.921000    -1.307634    -0.655218
5
Step=153 Time=30.600 State=1 Energy=-135.98405902 Pop=[0.1361 0.8639]
C       -0.007758     0.910620    -0.240063
N       -0.063528    -0.844330     0.051290
H        0.989908    -0.030334     1.176325
H       -0.388237     3.083212     0.554468
H        0.905325    -1.331337    -0.670285
5
Step=154 Time=30.800 State=1 Energy=-135.99043156 Pop=[0.1393 0.8607]
C       -0.005613     0.905533    -0.241782
N       -0.062707    -0.839159     0.052605
H        0.975777    -0.050331     1.169178
H       -0.394209     3.100962     0.559347
H        0.888437    -1.354300    -0.684638
5
Step=155 Time=31.000 State=1 Energy=-136.00531871 Pop=[0.1462 0.8538]
C       -0.003435     0.900290    -0.243482
N       -0.061757    -0.833862     0.053920
H        0.960716    -0.070789     1.161030
H       -0.400262     3.118510     0.564264
H        0.870370    -1.376474    -0.698238
5
Step=156 Time=31.200 State=1 Energy=-136.02911217 Pop=[0.1372 0.8628]
C       -0.001228     0.894890    -0.245165
N       -0.060677    -0.828443     0.055235
H        0.944721    -0.091720     1.151853
H       -0.406385     3.135857     0.569219
H        0.851159    -1.397816    -0.711047
5
Step=157 Time=31.400 State=1 Energy=-136.06223792 Pop=[0.1390 0.8610]
C        0.001007     0.889332    -0.246831
N       -0.059469    -0.822901     0.056549
H        0.927782    -0.113144     1.141622
H       -0.412568     3.153006     0.574215
H        0.830840    -1.418291    -0.723036
