6
Step 0, Time 0.000 fs, State 2, Energy -77.55106902 Ha, Coefficient [0.+0.j 1.+0.j]
C       -1.302000     0.206000     0.000000
H       -0.768000    -0.722000     0.000000
H       -2.372000     0.206000     0.000000
C       -0.626000     1.381000     0.000000
H       -1.159000     2.309000     0.000000
H        0.444000     1.381000     0.000000
6
Step 1, Time 0.200 fs, State 2, Energy -77.54686838 Ha, Coefficient [-4.68340748e-08-1.87081823e-07j  9.57134634e-01+2.89643389e-01j]
C       -1.302057     0.205901    -0.000001
H       -0.767988    -0.722167     0.000005
H       -2.372162     0.205922    -0.000001
C       -0.625943     1.381099     0.000001
H       -1.159019     2.309170    -0.000000
H        0.444164     1.381076     0.000001
6
Step 2, Time 0.400 fs, State 2, Energy -77.53566668 Ha, Coefficient [1.42495355e-07-4.39598309e-07j 8.79926043e-01+4.75110680e-01j]
C       -1.302228     0.205603    -0.000003
H       -0.767937    -0.722669     0.000009
H       -2.372646     0.205703    -0.000002
C       -0.625771     1.381397     0.000002
H       -1.159081     2.309680    -0.000001
H        0.444651     1.381292     0.000002
6
Step 3, Time 0.600 fs, State 2, Energy -77.52161708 Ha, Coefficient [3.15735566e-07-4.75976060e-07j 8.36375293e-01+5.48157249e-01j]
C       -1.302512     0.205111    -0.000004
H       -0.767832    -0.723509     0.000015
H       -2.373464     0.205357    -0.000003
C       -0.625486     1.381888     0.000003
H       -1.159202     2.310535    -0.000001
H        0.445471     1.381635     0.000003
6
Step 4, Time 0.800 fs, State 2, Energy -77.51100944 Ha, Coefficient [3.05574801e-07-5.25858466e-07j 8.37818038e-01+5.45949571e-01j]
C       -1.302892     0.204450    -0.000006
H       -0.767632    -0.724699     0.000020
H       -2.374644     0.204911    -0.000004
C       -0.625104     1.382548     0.000004
H       -1.159424     2.311746    -0.000001
H        0.446654     1.382077     0.000004
6
Step 5, Time 1.000 fs, State 2, Energy -77.50889578 Ha, Coefficient [3.30342199e-07-6.06588752e-07j 8.48628844e-01+5.28988739e-01j]
C       -1.303328     0.203693    -0.000007
H       -0.767264    -0.726267     0.000027
H       -2.376246     0.204420    -0.000005
C       -0.624667     1.383303     0.000005
H       -1.159819     2.313339    -0.000001
H        0.448260     1.382566     0.000004
6
Step 6, Time 1.200 fs, State 2, Energy -77.51158032 Ha, Coefficient [3.62536261e-07-7.38147243e-07j 8.47525164e-01+5.30755214e-01j]
C       -1.303727     0.202997    -0.000009
H       -0.766618    -0.728257     0.000035
H       -2.378359     0.203962    -0.000006
C       -0.624265     1.383996     0.000006
H       -1.160498     2.315357    -0.000001
H        0.450378     1.383025     0.000004
6
Step 7, Time 1.400 fs, State 2, Energy -77.50441880 Ha, Coefficient [3.18752182e-07-1.16091794e-06j 8.76448244e-01+4.81496081e-01j]
C       -1.303961     0.202587    -0.000010
H       -0.765585    -0.730707     0.000045
H       -2.381058     0.203619    -0.000006
C       -0.624028     1.384403     0.000007
H       -1.161571     2.317833    -0.000001
H        0.453086     1.383374     0.000004
6
Step 8, Time 1.600 fs, State 2, Energy -77.48120938 Ha, Coefficient [1.99361760e-07-1.67597931e-06j 9.68083559e-01+2.50627658e-01j]
C       -1.303940     0.202623    -0.000012
H       -0.764146    -0.733588     0.000056
H       -2.384295     0.203427    -0.000006
C       -0.624047     1.384364     0.000008
H       -1.163052     2.320727    -0.000000
H        0.456337     1.383583     0.000002
6
Step 9, Time 1.800 fs, State 2, Energy -77.46282110 Ha, Coefficient [-6.36634060e-07-2.18393938e-06j  9.89105825e-01-1.47206207e-01j]
C       -1.303697     0.203055    -0.000015
H       -0.762515    -0.736692     0.000072
H       -2.387737     0.203308    -0.000002
C       -0.624289     1.383931     0.000009
H       -1.164716     2.323815    -0.000000
H        0.459800     1.383736    -0.000001
6
Step 10, Time 2.000 fs, State 2, Energy -77.47380067 Ha, Coefficient [-1.05429122e-05-6.44870243e-06j  8.96924142e-01-4.42184445e-01j]
C       -1.303367     0.203655    -0.000016
H       -0.761239    -0.739496     0.000087
H       -2.390628     0.203048     0.000001
C       -0.624620     1.383333     0.000008
H       -1.165996     2.326549     0.000004
H        0.462714     1.384050    -0.000003
6
Step 11, Time 2.200 fs, State 2, Energy -77.55760539 Ha, Coefficient [-7.10523665e-06-1.90387960e-05j  9.97158621e-01-7.53304962e-02j]
C       -1.302997     0.204347     0.000003
H       -0.760956    -0.740693     0.000542
H       -2.391450     0.202680    -0.000610
C       -0.624993     1.382650     0.000014
H       -1.166226     2.327585     0.000462
H        0.463519     1.384468    -0.000596
6
Step 12, Time 2.400 fs, State 2, Energy -77.48312660 Ha, Coefficient [2.29214162e-05-4.98159075e-06j 9.52765143e-01-3.03708055e-01j]
C       -1.302703     0.204842     0.000023
H       -0.762378    -0.739522     0.000937
H       -2.389714     0.202088    -0.001188
C       -0.625292     1.382165     0.000022
H       -1.164726     2.326244     0.000864
H        0.461747     1.385101    -0.001159
6
Step 13, Time 2.600 fs, State 2, Energy -77.43644288 Ha, Coefficient [5.51724571e-06+2.06273432e-05j 5.99631187e-01-8.00276477e-01j]
C       -1.302534     0.205074     0.000040
H       -0.765227    -0.736559     0.001202
H       -2.385964     0.201176    -0.001585
C       -0.625459     1.381937     0.000027
H       -1.161837     2.323212     0.001139
H        0.457953     1.386043    -0.001551
6
Step 14, Time 2.800 fs, State 2, Energy -77.44960109 Ha, Coefficient [-3.18755643e-05+1.74432995e-05j  1.32273074e-01-9.91213313e-01j]
C       -1.302517     0.205056     0.000055
H       -0.768828    -0.732931     0.001645
H       -2.381201     0.199925    -0.002160
C       -0.625473     1.381952     0.000032
H       -1.158241     2.319600     0.001599
H        0.453148     1.387316    -0.002125
6
Step 15, Time 3.000 fs, State 2, Energy -77.49797000 Ha, Coefficient [-2.20452026e-05-2.69053823e-05j  2.22091109e-02-9.99753347e-01j]
C       -1.302594     0.204886     0.000072
H       -0.772503    -0.729299     0.002327
H       -2.376318     0.198594    -0.002992
C       -0.625390     1.382113     0.000039
H       -1.154596     2.316046     0.002304
H        0.448227     1.388662    -0.002963
6
Step 16, Time 3.200 fs, State 2, Energy -77.59762479 Ha, Coefficient [2.09552919e-05+8.72618368e-06j 6.71130796e-01-7.41338961e-01j]
C       -1.302768     0.204558     0.000090
H       -0.776096    -0.725857     0.003302
H       -2.371599     0.197243    -0.004139
C       -0.625208     1.382432     0.000048
H       -1.151056     2.312699     0.003306
H        0.443468     1.390033    -0.004115
6
Step 17, Time 3.400 fs, State 2, Energy -77.73391125 Ha, Coefficient [-1.12399016e-05-2.71081597e-05j  5.35824226e-01+8.44329555e-01j]
C       -1.302992     0.204142     0.000108
H       -0.779468    -0.722594     0.004536
H       -2.367149     0.196003    -0.005553
C       -0.624974     1.382837     0.000058
H       -1.147756     2.309542     0.004569
H        0.438966     1.391302    -0.005531
6
Step 18, Time 3.600 fs, State 2, Energy -77.89454583 Ha, Coefficient [-2.59612916e-05-3.18972894e-06j -5.12874285e-01-8.58463725e-01j]
C       -1.303195     0.203760     0.000125
H       -0.782575    -0.719464     0.005966
H       -2.362974     0.194941    -0.007157
C       -0.624757     1.383206     0.000068
H       -1.144745     2.306531     0.006030
H        0.434722     1.392403    -0.007135
6
Step 19, Time 3.800 fs, State 2, Energy -78.06080052 Ha, Coefficient [-3.43328721e-05-5.93753115e-06j -7.59837878e-01+6.50112604e-01j]
C       -1.303286     0.203571     0.000138
H       -0.785421    -0.716480     0.007494
H       -2.359094     0.194053    -0.008834
C       -0.624647     1.383379     0.000077
H       -1.142027     2.303685     0.007591
H        0.430745     1.393341    -0.008809
6
Step 20, Time 4.000 fs, State 2, Energy -78.21323387 Ha, Coefficient [-8.89644575e-06-3.26811076e-05j -3.74099085e-01+9.27388739e-01j]
C       -1.303189     0.203706     0.000145
H       -0.788026    -0.713713     0.008993
H       -2.355561     0.193291    -0.010442
C       -0.624719     1.383225     0.000084
H       -1.139588     2.301075     0.009123
H        0.427080     1.394162    -0.010408
6
Step 21, Time 4.200 fs, State 2, Energy -78.34424354 Ha, Coefficient [ 1.99324454e-05+2.07882056e-05j -8.34381886e-01+5.51186781e-01j]
C       -1.302894     0.204187     0.000145
H       -0.790390    -0.711229     0.010325
H       -2.352439     0.192613    -0.011832
C       -0.624981     1.382725     0.000089
H       -1.137433     2.298774     0.010490
H        0.423778     1.394900    -0.011778
6
Step 22, Time 4.400 fs, State 2, Energy -78.45835481 Ha, Coefficient [-6.29301871e-06-2.91088467e-05j -5.70811380e-01-8.21081218e-01j]
C       -1.302462     0.204907     0.000138
H       -0.792455    -0.709048     0.011371
H       -2.349784     0.192040    -0.012876
C       -0.625372     1.381982     0.000090
H       -1.135615     2.296814     0.011573
H        0.420880     1.395518    -0.012785
6
Step 23, Time 4.600 fs, State 2, Energy -78.55856345 Ha, Coefficient [-2.60685648e-05+1.83252989e-05j  9.80589409e-01+1.96072461e-01j]
C       -1.301990     0.205701     0.000124
H       -0.794079    -0.707164     0.012051
H       -2.347673     0.191661    -0.013495
C       -0.625795     1.381165     0.000085
H       -1.134256     2.295210     0.012298
H        0.418448     1.395899    -0.013344
6
Step 24, Time 4.800 fs, State 2, Energy -78.63725602 Ha, Coefficient [-7.16528965e-06+1.54264938e-05j -9.96635696e-01-8.19590660e-02j]
C       -1.301573     0.206404     0.000106
H       -0.795055    -0.705593     0.012350
H       -2.346236     0.191596    -0.013684
C       -0.626157     1.380437     0.000072
H       -1.133525     2.294008     0.012658
H        0.416602     1.395883    -0.013445
6
Step 25, Time 5.000 fs, State 2, Energy -78.67906097 Ha, Coefficient [1.87693066e-06+3.62923968e-05j 9.51596855e-01+3.07349027e-01j]
C       -1.301285     0.206890     0.000086
H       -0.795173    -0.704401     0.012317
H       -2.345637     0.191945    -0.013502
C       -0.626390     1.379927     0.000050
H       -1.133586     2.293299     0.012706
H        0.415511     1.395333    -0.013145
6
Step 26, Time 5.200 fs, State 2, Energy -78.67023584 Ha, Coefficient [ 2.23208022e-05+1.45330530e-05j -8.91662357e-01-4.52701049e-01j]
C       -1.301167     0.207087     0.000069
H       -0.794304    -0.703674     0.012000
H       -2.346010     0.192740    -0.013011
C       -0.626454     1.379708     0.000017
H       -1.134528     2.293187     0.012496
H        0.415317     1.394191    -0.012511
6
Step 27, Time 5.400 fs, State 2, Energy -78.60812896 Ha, Coefficient [2.52738288e-05-5.08810503e-06j 9.93547445e-01+1.13417258e-01j]
C       -1.301230     0.206971     0.000055
H       -0.792470    -0.703460     0.011446
H       -2.347387     0.193934    -0.012272
C       -0.626340     1.379801    -0.000024
H       -1.136318     2.293730     0.012071
H        0.416054     1.392503    -0.011607
6
Step 28, Time 5.600 fs, State 2, Energy -78.50295457 Ha, Coefficient [-1.63009069e-05-2.03901345e-05j -4.42798125e-01+8.96621336e-01j]
C       -1.301455     0.206568     0.000044
H       -0.789853    -0.703752     0.010704
H       -2.349692     0.195405    -0.011347
C       -0.626065     1.380179    -0.000072
H       -1.138808     2.294930     0.011477
H        0.417624     1.390422    -0.010504
6
Step 29, Time 5.800 fs, State 2, Energy -78.37308591 Ha, Coefficient [ 2.12748091e-05+2.30666767e-05j -9.63766251e-01+2.66748220e-01j]
C       -1.301796     0.205941     0.000038
H       -0.786747    -0.704505     0.009816
H       -2.352783     0.196982    -0.010295
C       -0.625662     1.380773    -0.000123
H       -1.141775     2.296752     0.010754
H        0.419842     1.388176    -0.009265
6
Step 30, Time 6.000 fs, State 2, Energy -78.23780440 Ha, Coefficient [-3.52891307e-05+1.08256617e-05j -8.54348652e-01+5.19700278e-01j]
C       -1.302194     0.205178     0.000035
H       -0.783478    -0.705658     0.008817
H       -2.356513     0.198507    -0.009164
C       -0.625177     1.381486    -0.000173
H       -1.145003     2.299144     0.009936
H        0.422495     1.386011    -0.007941
6
Step 31, Time 6.200 fs, State 2, Energy -78.11005986 Ha, Coefficient [-4.35478924e-05-8.17853320e-07j  3.03547196e-01+9.52816403e-01j]
C       -1.302573     0.204382     0.000036
H       -0.780330    -0.707157     0.007736
H       -2.360779     0.199887    -0.008001
C       -0.624666     1.382205    -0.000222
H       -1.148354     2.302058     0.009056
H        0.425401     1.384136    -0.006574
6
Step 32, Time 6.400 fs, State 2, Energy -77.99190708 Ha, Coefficient [-1.04438418e-05+1.57343005e-05j  4.99957983e-01-8.66049661e-01j]
C       -1.302850     0.203673     0.000039
H       -0.777489    -0.708966     0.006596
H       -2.365548     0.201151    -0.006848
C       -0.624192     1.382797    -0.000265
H       -1.151825     2.305438     0.008149
H        0.428449     1.382685    -0.005199
6
Step 33, Time 6.600 fs, State 2, Energy -77.87744988 Ha, Coefficient [-5.08864471e-05+3.13154931e-05j -3.97829912e-01+9.17459186e-01j]
C       -1.302937     0.203174     0.000040
H       -0.775033    -0.711067     0.005419
H       -2.370816     0.202475    -0.005735
C       -0.623822     1.383130    -0.000300
H       -1.155542     2.309181     0.007248
H        0.431606     1.381704    -0.003837
6
Step 34, Time 6.800 fs, State 2, Energy -77.76617921 Ha, Coefficient [ 9.54360282e-05-1.57141307e-04j -5.85312997e-01-8.10807413e-01j]
C       -1.302788     0.202955     0.000038
H       -0.772936    -0.713458     0.004223
H       -2.376513     0.204153    -0.004690
C       -0.623598     1.383128    -0.000325
H       -1.159695     2.313072     0.006387
H        0.434909     1.381159    -0.002504
6
Step 35, Time 7.000 fs, State 2, Energy -77.67542538 Ha, Coefficient [-4.39796595e-04+1.71088499e-04j  6.68010925e-01-7.44151316e-01j]
C       -1.302436     0.202991     0.000032
H       -0.771087    -0.716184     0.003020
H       -2.382309     0.206529    -0.003727
C       -0.623525     1.382835    -0.000342
H       -1.164380     2.316673     0.005595
H        0.438475     1.380975    -0.001191
6
Step 36, Time 7.200 fs, State 2, Energy -77.60687821 Ha, Coefficient [0.00109615+0.00050472j 0.99878764-0.04921163j]
C       -1.302028     0.203216     0.000037
H       -0.769248    -0.719419     0.001783
H       -2.387154     0.209825    -0.002850
C       -0.623614     1.382398    -0.000368
H       -1.169264     2.319056     0.004864
H        0.442567     1.381054     0.000149
6
Step 37, Time 7.400 fs, State 2, Energy -77.56787018 Ha, Coefficient [-7.65160853e-04+0.00145996j  9.13791704e-01+0.40617977j]
C       -1.301887     0.203582    -0.000018
H       -0.767015    -0.723425     0.000761
H       -2.388565     0.213686    -0.001762
C       -0.623874     1.381998    -0.000384
H       -1.173630     2.319293     0.004126
H        0.447525     1.381368     0.001667
6
Step 38, Time 7.600 fs, State 2, Energy -77.50585277 Ha, Coefficient [-0.00127262-0.00081275j  0.93123871+0.36440661j]
C       -1.302202     0.204071    -0.000125
H       -0.764227    -0.728435     0.000108
H       -2.385159     0.217210    -0.000434
C       -0.624416     1.381859    -0.000416
H       -1.175722     2.316091     0.003283
H        0.453638     1.381887     0.003485
6
Step 39, Time 7.800 fs, State 2, Energy -77.52478722 Ha, Coefficient [0.00157847+0.00104039j 0.88500952+0.46556909j]
C       -1.302795     0.204587    -0.000254
H       -0.761376    -0.734191    -0.000317
H       -2.379033     0.220099     0.001037
C       -0.625142     1.381974    -0.000481
H       -1.175568     2.310424     0.002479
H        0.460224     1.382887     0.005551
6
Step 40, Time 8.000 fs, State 2, Energy -77.66421908 Ha, Coefficient [-0.00581388+0.00249031j -0.17667457+0.984249j  ]
C       -1.303381     0.204937    -0.000414
H       -0.759948    -0.738997    -0.000553
H       -2.372321     0.222409     0.002832
C       -0.625706     1.382211    -0.000575
H       -1.174389     2.304261     0.001911
H        0.464603     1.384558     0.007593
6
Step 41, Time 8.200 fs, State 2, Energy -77.74236253 Ha, Coefficient [ 0.00568475-0.00266239j -0.86926495-0.49430663j]
C       -1.303780     0.204983    -0.000577
H       -0.760871    -0.740397    -0.000803
H       -2.366039     0.224375     0.004902
C       -0.625606     1.382449    -0.000632
H       -1.173029     2.298525     0.001488
H        0.461452     1.386339     0.008822
6
Step 42, Time 8.400 fs, State 2, Energy -77.81714270 Ha, Coefficient [-0.00255941-0.00242108j  0.9953902 -0.09584331j]
C       -1.304035     0.204757    -0.000756
H       -0.763252    -0.738001    -0.001038
H       -2.360204     0.225822     0.007238
C       -0.624993     1.382674    -0.000632
H       -1.171661     2.293447     0.001240
H        0.452368     1.387586     0.009104
6
Step 43, Time 8.600 fs, State 2, Energy -77.99278168 Ha, Coefficient [-0.00330988-0.00200241j -0.73629679-0.67664767j]
C       -1.304226     0.204326    -0.000920
H       -0.766091    -0.732311    -0.001198
H       -2.354389     0.226403     0.009488
C       -0.624366     1.382859    -0.000642
H       -1.169929     2.289027     0.001028
H        0.442463     1.388670     0.009294
6
Step 44, Time 8.800 fs, State 2, Energy -78.07347345 Ha, Coefficient [ 0.00156172-0.00354514j -0.62784485+0.77832888j]
C       -1.304362     0.204044    -0.001037
H       -0.768481    -0.724777    -0.001222
H       -2.348207     0.225281     0.011269
C       -0.623939     1.382781    -0.000652
H       -1.167585     2.285449     0.000738
H        0.432854     1.390123     0.009341
6
Step 45, Time 9.000 fs, State 2, Energy -78.32133708 Ha, Coefficient [-0.00285475+0.00260031j -0.88799264+0.45984145j]
C       -1.304439     0.204047    -0.001068
H       -0.770314    -0.716775    -0.001194
H       -2.341887     0.221597     0.012476
C       -0.623754     1.382413    -0.000675
H       -1.164429     2.283123     0.000300
H        0.423930     1.392484     0.009191
6
Step 46, Time 9.200 fs, State 2, Energy -78.52551481 Ha, Coefficient [0.00030532+0.00387447j 0.05374218-0.99854728j]
C       -1.304288     0.204574    -0.001001
H       -0.771848    -0.709206    -0.001147
H       -2.336076     0.214761     0.012933
C       -0.623936     1.381590    -0.000690
H       -1.160491     2.282411    -0.000272
H        0.416081     1.395996     0.008645
6
Step 47, Time 9.400 fs, State 2, Energy -78.67992014 Ha, Coefficient [-0.0022915 +0.00315699j -0.28712629+0.95788479j]
C       -1.303886     0.205515    -0.000847
H       -0.773405    -0.702735    -0.001117
H       -2.331530     0.204896     0.012548
C       -0.624419     1.380483    -0.000671
H       -1.156050     2.283432    -0.000923
H        0.409612     1.400337     0.007586
6
Step 48, Time 9.600 fs, State 2, Energy -78.79816908 Ha, Coefficient [-0.00220378-0.00312902j  0.99792001-0.06435061j]
C       -1.303312     0.206537    -0.000605
H       -0.775130    -0.697801    -0.001150
H       -2.328885     0.192956     0.011355
C       -0.625039     1.379463    -0.000619
H       -1.151513     2.286140    -0.001638
H        0.404703     1.404618     0.006022
6
Step 49, Time 9.800 fs, State 2, Energy -78.86810024 Ha, Coefficient [0.00339779+0.00193601j 0.15753134-0.98750625j]
C       -1.302621     0.207280    -0.000285
H       -0.776966    -0.694689    -0.001260
H       -2.328553     0.180508     0.009433
C       -0.625684     1.378887    -0.000538
H       -1.147304     2.290470    -0.002403
H        0.401450     1.407626     0.004043
6
Step 50, Time 10.000 fs, State 2, Energy -78.86892758 Ha, Coefficient [-0.00386924-0.00053969j -0.92580452-0.37798245j]
C       -1.301877     0.207421     0.000097
H       -0.778759    -0.693523    -0.001443
H       -2.330510     0.169455     0.006910
C       -0.626277     1.379020    -0.000436
H       -1.143764     2.296357    -0.003231
H        0.399868     1.408371     0.001812
6
Step 51, Time 10.200 fs, State 2, Energy -78.79485939 Ha, Coefficient [ 0.00225578-0.00319407j -0.00463089+0.99998163j]
C       -1.301142     0.206769     0.000533
H       -0.780418    -0.694167    -0.001583
H       -2.334210     0.161693     0.003892
C       -0.626773     1.379901    -0.000346
H       -1.141247     2.303869    -0.004016
H        0.399853     1.406520    -0.000521
6
Step 52, Time 10.400 fs, State 2, Energy -78.67785664 Ha, Coefficient [0.00397753-5.71003353e-04j 0.22313221-9.74779908e-01j]
C       -1.300606     0.205364     0.000965
H       -0.781708    -0.696550    -0.001737
H       -2.338616     0.158025     0.000703
C       -0.627060     1.381447    -0.000241
H       -1.139768     2.312428    -0.004870
H        0.401108     1.402339    -0.002727
6
Step 53, Time 10.600 fs, State 2, Energy -78.56722041 Ha, Coefficient [0.00336283-0.00264105j 0.45229798+0.89185663j]
C       -1.300386     0.203496     0.001350
H       -0.782494    -0.700526    -0.001846
H       -2.342912     0.158353    -0.002384
C       -0.627064     1.383377    -0.000122
H       -1.139435     2.321169    -0.005725
H        0.403280     1.396511    -0.004683
6
Step 54, Time 10.800 fs, State 2, Energy -78.49573780 Ha, Coefficient [-0.00261619-0.00294445j -0.9831193 +0.18292329j]
C       -1.300458     0.201732     0.001642
H       -0.782699    -0.706184    -0.001914
H       -2.346925     0.161706    -0.005060
C       -0.626790     1.385291     0.000016
H       -1.140472     2.328396    -0.006488
H        0.406130     1.389800    -0.006285
6
Step 55, Time 11.000 fs, State 2, Energy -78.39199531 Ha, Coefficient [ 0.00124885+0.00390921j -0.68626267-0.72734222j]
C       -1.300582     0.200954     0.001768
H       -0.782260    -0.713853    -0.002099
H       -2.350981     0.167045    -0.006992
C       -0.626422     1.386602     0.000211
H       -1.143396     2.331226    -0.007003
H        0.409773     1.382942    -0.007480
6
Step 56, Time 11.200 fs, State 2, Energy -78.16632505 Ha, Coefficient [-0.00403155+0.00076924j -0.99858512+0.05301812j]
C       -1.300509     0.201799     0.001690
H       -0.780871    -0.723429    -0.002533
H       -2.355282     0.173642    -0.008034
C       -0.626200     1.386816     0.000494
H       -1.148389     2.327934    -0.007182
H        0.414148     1.376604    -0.008271
6
Step 57, Time 11.400 fs, State 2, Energy -77.94612756 Ha, Coefficient [-0.00416108+3.05927310e-04j  0.92089654+3.89784749e-01j]
C       -1.300369     0.203758     0.001468
H       -0.778024    -0.733605    -0.003176
H       -2.359588     0.181041    -0.008288
C       -0.626022     1.386130     0.000822
H       -1.154877     2.320856    -0.007175
H        0.418311     1.371282    -0.008635
6
Step 58, Time 11.600 fs, State 2, Energy -77.85240680 Ha, Coefficient [-0.00397622+0.00137844j -0.99687717-0.07885554j]
C       -1.300380     0.205799     0.001210
H       -0.773777    -0.741364    -0.004033
H       -2.363573     0.189162    -0.007875
C       -0.625702     1.385078     0.001115
H       -1.162146     2.312399    -0.007253
H        0.421631     1.367596    -0.008540
6
Step 59, Time 11.800 fs, State 2, Energy -77.78873113 Ha, Coefficient [-0.00276017+0.00310602j  0.71859202-0.69541947j]
C       -1.300463     0.206988     0.001050
H       -0.769470    -0.741207    -0.005226
H       -2.367566     0.198122    -0.006937
C       -0.625231     1.383957     0.001286
H       -1.169762     2.303688    -0.007834
H        0.424316     1.366377    -0.007834
6
Step 60, Time 12.000 fs, State 2, Energy -77.88630152 Ha, Coefficient [ 0.00192345+0.0039323j  -0.68932865+0.72443554j]
C       -1.300427     0.207219     0.001004
H       -0.766420    -0.733019    -0.006532
H       -2.372065     0.207470    -0.005784
C       -0.624703     1.382780     0.001313
H       -1.177179     2.295815    -0.008771
H        0.426456     1.367988    -0.006517
6
Step 61, Time 12.200 fs, State 2, Energy -77.92953218 Ha, Coefficient [0.00434331+0.00182262j 0.88043623-0.47414117j]
C       -1.300414     0.206944     0.001036
H       -0.764115    -0.721960    -0.007930
H       -2.376943     0.216852    -0.004647
C       -0.624190     1.381756     0.001243
H       -1.182519     2.287425    -0.009655
H        0.428104     1.371409    -0.004918
6
Step 62, Time 12.400 fs, State 2, Energy -78.12697053 Ha, Coefficient [-0.00032274+0.00630244j -0.11581225-0.99325108j]
C       -1.300598     0.206422     0.001131
H       -0.762068    -0.711116    -0.009457
H       -2.380970     0.226023    -0.003592
C       -0.623898     1.380991     0.001083
H       -1.183494     2.278140    -0.010104
H        0.429777     1.376016    -0.003218
6
Step 63, Time 12.600 fs, State 2, Energy -78.36704823 Ha, Coefficient [-0.00474305-0.00565311j  0.62570285-0.7800266j ]
C       -1.301290     0.205962     0.001165
H       -0.760167    -0.701456    -0.010769
H       -2.380211     0.232898    -0.002060
C       -0.624021     1.380446     0.000862
H       -1.178733     2.268490    -0.009835
H        0.432061     1.381103    -0.001472
6
Step 64, Time 12.800 fs, State 2, Energy -78.58872984 Ha, Coefficient [-0.00489128+0.00489694j -0.1588455 +0.98727919j]
C       -1.302519     0.205761     0.001102
H       -0.759364    -0.693682    -0.011535
H       -2.373298     0.236257    -0.000158
C       -0.624576     1.380045     0.000588
H       -1.168054     2.259896    -0.008668
H        0.434925     1.385743     0.000236
6
Step 65, Time 13.000 fs, State 2, Energy -78.85820769 Ha, Coefficient [-0.00685634+0.00055911j  0.95522066+0.2958144j ]
C       -1.303815     0.205904     0.000895
H       -0.761349    -0.688842    -0.011535
H       -2.363622     0.236998     0.001819
C       -0.625454     1.379674     0.000319
H       -1.152536     2.254102    -0.006541
H        0.437620     1.388673     0.001795
6
Step 66, Time 13.200 fs, State 2, Energy -79.12593997 Ha, Coefficient [0.0071791 -0.0019222j  0.46779103+0.88380785j]
C       -1.304957     0.206366     0.000544
H       -0.767144    -0.687894    -0.010519
H       -2.353520     0.236430     0.003663
C       -0.626300     1.379283     0.000067
H       -1.134400     2.252961    -0.003526
H        0.438868     1.388582     0.003098
6
Step 67, Time 13.400 fs, State 2, Energy -79.30793654 Ha, Coefficient [-0.00266522-0.00600256j -0.97344548-0.22882474j]
C       -1.305842     0.207264     0.000082
H       -0.776567    -0.691544    -0.008631
H       -2.343874     0.233681     0.005320
C       -0.626835     1.378852    -0.000155
H       -1.116885     2.257287     0.000114
H        0.438048     1.385090     0.004064
6
Step 68, Time 13.600 fs, State 2, Energy -79.40672064 Ha, Coefficient [-0.00632236-0.00258345j  0.98111438+0.19330788j]
C       -1.306452     0.208584    -0.000427
H       -0.788194    -0.699466    -0.006283
H       -2.335421     0.227663     0.006644
C       -0.626913     1.378439    -0.000330
H       -1.103509     2.266074     0.003910
H        0.436040     1.379428     0.004756
6
Step 69, Time 13.800 fs, State 2, Energy -79.46381508 Ha, Coefficient [-0.00671819-0.00094858j -0.80784942-0.58934987j]
C       -1.306792     0.210139    -0.000906
H       -0.800070    -0.710375    -0.003763
H       -2.328970     0.218059     0.007357
C       -0.626497     1.378190    -0.000452
H       -1.097181     2.276813     0.007325
H        0.434225     1.373646     0.005274
6
Step 70, Time 14.000 fs, State 2, Energy -79.46100176 Ha, Coefficient [-0.00724605+0.00142805j  0.50384425+0.86376295j]
C       -1.306730     0.211494    -0.001295
H       -0.810505    -0.721406    -0.001023
H       -2.325729     0.205937     0.007157
C       -0.625692     1.378266    -0.000525
H       -1.099488     2.286534     0.009903
H        0.433407     1.370025     0.005661
6
Step 71, Time 14.200 fs, State 2, Energy -79.27506685 Ha, Coefficient [ 0.00268643+0.00571689j -0.99660736+0.08206021j]
C       -1.306003     0.211895    -0.001557
H       -0.818307    -0.727309     0.002010
H       -2.326970     0.193682     0.005948
C       -0.624862     1.378787    -0.000564
H       -1.109880     2.293066     0.011359
H        0.434282     1.370657     0.005967
6
Step 72, Time 14.400 fs, State 2, Energy -78.87188835 Ha, Coefficient [-0.00410464+0.00551879j -0.17090968+0.98526269j]
C       -1.304617     0.210809    -0.001687
H       -0.822712    -0.724704     0.005024
H       -2.332315     0.183856     0.003950
C       -0.624355     1.379765    -0.000572
H       -1.125674     2.296372     0.011718
H        0.437272     1.375868     0.006236
6
Step 73, Time 14.600 fs, State 2, Energy -78.49416449 Ha, Coefficient [ 0.00677415-0.00160382j -0.90296396-0.42965989j]
C       -1.303003     0.208521    -0.001708
H       -0.823529    -0.716273     0.007590
H       -2.339608     0.177432     0.001460
C       -0.624164     1.381065    -0.000544
H       -1.143703     2.298272     0.011336
H        0.441908     1.383736     0.006457
6
Step 74, Time 14.800 fs, State 2, Energy -78.41677150 Ha, Coefficient [-0.0056927 +0.00109681j  0.07652327-0.99705094j]
C       -1.301491     0.205613    -0.001629
H       -0.821352    -0.705741     0.009506
H       -2.347707     0.173537    -0.001358
C       -0.624098     1.382542    -0.000501
H       -1.162031     2.300259     0.010643
H        0.447345     1.392157     0.006598
6
Step 75, Time 15.000 fs, State 2, Energy -78.68996790 Ha, Coefficient [ 0.00147486+0.00450256j -0.3867556 +0.92217008j]
C       -1.300227     0.202546    -0.001412
H       -0.816198    -0.694469     0.010395
H       -2.356326     0.171908    -0.004200
C       -0.623976     1.383917    -0.000476
H       -1.179314     2.303094     0.009737
H        0.451589     1.399843     0.006576
6
Step 76, Time 15.200 fs, State 2, Energy -78.98661380 Ha, Coefficient [-0.00851462+0.00673048j -0.02878854+0.9995266j ]
C       -1.299570     0.200207    -0.001023
H       -0.807439    -0.685382     0.009598
H       -2.362588     0.175000    -0.006338
C       -0.623785     1.384532    -0.000461
H       -1.191593     2.306917     0.007998
H        0.451266     1.404374     0.006436
6
Step 77, Time 15.400 fs, State 2, Energy -78.90109735 Ha, Coefficient [-0.01047199+0.0024768j   0.86567824+0.50048516j]
C       -1.299624     0.199639    -0.000495
H       -0.795689    -0.681921     0.006927
H       -2.363849     0.184781    -0.007321
C       -0.624019     1.383900    -0.000405
H       -1.192965     2.309111     0.004769
H        0.445582     1.403240     0.006364
6
Step 78, Time 15.600 fs, State 2, Energy -78.51805782 Ha, Coefficient [ 0.01018415+0.00524229j -0.83822683+0.54520142j]
C       -1.299941     0.200873     0.000099
H       -0.783370    -0.684134     0.002984
H       -2.361967     0.199594    -0.007506
C       -0.624972     1.382328    -0.000300
H       -1.183202     2.307369     0.000572
H        0.436749     1.396414     0.006360
6
Step 79, Time 15.800 fs, State 2, Energy -78.26749340 Ha, Coefficient [-0.00923492+0.00693926j -0.8209224 +0.57092291j]
C       -1.300150     0.202994     0.000717
H       -0.772692    -0.689452    -0.001336
H       -2.359953     0.216088    -0.007431
C       -0.626158     1.380388    -0.000199
H       -1.169442     2.303741    -0.003425
H        0.426923     1.386711     0.006037
6
Step 80, Time 16.000 fs, State 2, Energy -78.32610080 Ha, Coefficient [ 0.00599837-0.01000196j -0.98808248+0.15348288j]
C       -1.300329     0.205254     0.001284
H       -0.764075    -0.695966    -0.005464
H       -2.358246     0.231836    -0.007225
C       -0.627204     1.378502    -0.000065
H       -1.155334     2.300223    -0.007320
H        0.417080     1.376532     0.005503
6
Step 81, Time 16.200 fs, State 2, Energy -78.64574725 Ha, Coefficient [-8.50461096e-04-0.00992606j  9.80178810e-01-0.19786422j]
C       -1.300741     0.207508     0.001720
H       -0.756526    -0.703431    -0.009437
H       -2.355565     0.244353    -0.006670
C       -0.628032     1.376913     0.000173
H       -1.141587     2.296962    -0.011263
H        0.407874     1.366813     0.004828
6
Step 82, Time 16.400 fs, State 2, Energy -79.13991743 Ha, Coefficient [-0.0023636 +0.01990529j  0.76466046+0.64412155j]
C       -1.301423     0.209888     0.001973
H       -0.749328    -0.711797    -0.013462
H       -2.351476     0.250160    -0.005608
C       -0.628684     1.375819     0.000572
H       -1.129459     2.292399    -0.015005
H        0.400363     1.358628     0.003775
6
Step 83, Time 16.600 fs, State 2, Energy -79.54790608 Ha, Coefficient [-0.01358082+0.02228277j  0.25738413-0.96595675j]
C       -1.301796     0.211944     0.002014
H       -0.746119    -0.717117    -0.016256
H       -2.347755     0.247543    -0.004103
C       -0.629225     1.375419     0.001033
H       -1.121377     2.285036    -0.017931
H        0.396230     1.354189     0.002001
6
Step 84, Time 16.800 fs, State 2, Energy -79.51147403 Ha, Coefficient [-0.0197826 +0.01717232j -0.88645482+0.46207316j]
C       -1.301246     0.212602     0.001831
H       -0.751333    -0.712905    -0.016231
H       -2.347015     0.238753    -0.002642
C       -0.629629     1.375810     0.001431
H       -1.119278     2.275688    -0.019455
H        0.396863     1.355614    -0.000529
6
Step 85, Time 17.000 fs, State 2, Energy -79.28243042 Ha, Coefficient [0.01591155+0.02201612j 0.02620923-0.99928734j]
C       -1.300311     0.211933     0.001564
H       -0.761647    -0.703383    -0.014190
H       -2.349479     0.227029    -0.001489
C       -0.629586     1.376764     0.001669
H       -1.122911     2.267451    -0.019540
H        0.401628     1.362651    -0.003290
6
Step 86, Time 17.200 fs, State 2, Energy -79.12331238 Ha, Coefficient [-0.00738429-0.02569241j  0.70882217-0.70488049j]
C       -1.299694     0.210463     0.001332
H       -0.772941    -0.694864    -0.011701
H       -2.353891     0.214549    -0.000445
C       -0.628942     1.378075     0.001687
H       -1.130256     2.262780    -0.018122
H        0.409655     1.373179    -0.005693
6
Step 87, Time 17.400 fs, State 2, Energy -78.82485347 Ha, Coefficient [ 0.01716071+0.02054836j -0.7938616 -0.60750888j]
C       -1.299536     0.208461     0.001113
H       -0.784560    -0.688863    -0.008725
H       -2.359386     0.202591     0.000602
C       -0.627852     1.379621     0.001469
H       -1.138989     2.262398    -0.014944
H        0.420622     1.384946    -0.007686
6
Step 88, Time 17.600 fs, State 2, Energy -78.85872813 Ha, Coefficient [-0.02641832-0.00495989j -0.71590842+0.69767658j]
C       -1.300118     0.206028     0.000888
H       -0.795937    -0.685713    -0.005070
H       -2.364085     0.192604     0.001488
C       -0.626266     1.381372     0.001076
H       -1.147075     2.266608    -0.010238
H        0.432829     1.395698    -0.009566
6
Step 89, Time 17.800 fs, State 2, Energy -78.81822222 Ha, Coefficient [0.0010519 -0.02728724j 0.82020928+0.57141144j]
C       -1.301772     0.203674     0.000613
H       -0.805908    -0.686808    -0.000619
H       -2.364940     0.186647     0.002027
C       -0.624005     1.382926     0.000594
H       -1.153005     2.276065    -0.004520
H        0.442346     1.402833    -0.011258
6
Step 90, Time 18.000 fs, State 2, Energy -78.65096706 Ha, Coefficient [-0.01571164-0.02270671j -0.82129975-0.56982829j]
C       -1.304135     0.202034     0.000252
H       -0.813967    -0.692694     0.004146
H       -2.362152     0.185187     0.002321
C       -0.621267     1.383833     0.000124
H       -1.156333     2.290074     0.001315
H        0.446486     1.404907    -0.012236
6
Step 91, Time 18.200 fs, State 2, Energy -78.43004546 Ha, Coefficient [0.0032645 +0.02741532j 0.34162681-0.93943007j]
C       -1.305883     0.201812    -0.000200
H       -0.820486    -0.701830     0.008523
H       -2.359416     0.186486     0.002468
C       -0.619090     1.383503    -0.000251
H       -1.158083     2.306469     0.006566
H        0.446900     1.402930    -0.012157
6
Step 92, Time 18.400 fs, State 2, Energy -78.34823040 Ha, Coefficient [0.00268403-0.02769846j 0.83313063-0.55237573j]
C       -1.306142     0.203155    -0.000716
H       -0.825521    -0.712300     0.012102
H       -2.358671     0.189153     0.002278
C       -0.618292     1.381685    -0.000475
H       -1.160235     2.323183     0.011230
H        0.446925     1.399658    -0.011390
6
Step 93, Time 18.600 fs, State 2, Energy -78.38920334 Ha, Coefficient [-0.01816628+0.0222602j   0.92458698+0.37988601j]
C       -1.305003     0.205372    -0.001169
H       -0.827738    -0.722334     0.014797
H       -2.359671     0.192968     0.001444
C       -0.619275     1.379532    -0.000548
H       -1.160363     2.332638     0.014284
H        0.448410     1.395669    -0.010043
6
Step 94, Time 18.800 fs, State 2, Energy -78.23110177 Ha, Coefficient [-0.0336939 -0.02087659j  0.99753115+0.05796972j]
C       -1.302885     0.207289    -0.001339
H       -0.825531    -0.727896     0.016232
H       -2.362645     0.197454     0.000053
C       -0.622419     1.379064    -0.000556
H       -1.152120     2.322289     0.013939
H        0.453159     1.389821    -0.007628
6
Step 95, Time 19.000 fs, State 2, Energy -78.22353403 Ha, Coefficient [0.02635214-0.02960091j 0.94321343-0.32981476j]
C       -1.300661     0.208507    -0.001258
H       -0.818646    -0.726386     0.015723
H       -2.366822     0.202473    -0.001351
C       -0.626215     1.379221    -0.000581
H       -1.141316     2.305633     0.011786
H        0.458376     1.383564    -0.004225
6
Step 96, Time 19.200 fs, State 2, Energy -78.53430942 Ha, Coefficient [-0.03020265-0.02661442j -0.26449191+0.96354735j]
C       -1.299099     0.209274    -0.001028
H       -0.806925    -0.719237     0.013550
H       -2.371240     0.207621    -0.002805
C       -0.629135     1.379356    -0.000596
H       -1.132060     2.289089     0.008884
H        0.457997     1.377070    -0.000265
6
Step 97, Time 19.400 fs, State 2, Energy -78.75817840 Ha, Coefficient [-0.02177518-0.03241884j  0.91305477-0.40596286j]
C       -1.299028     0.209847    -0.000634
H       -0.790466    -0.709647     0.009485
H       -2.372455     0.213398    -0.003330
C       -0.629955     1.379399    -0.000705
H       -1.127556     2.272853     0.005213
H        0.447180     1.370598     0.004608
6
Step 98, Time 19.600 fs, State 2, Energy -78.89551087 Ha, Coefficient [0.03088235-0.02564028j 0.03084444-0.99871792j]
C       -1.300457     0.210368    -0.000176
H       -0.771237    -0.700774     0.004550
H       -2.369229     0.220379    -0.003182
C       -0.628724     1.379316    -0.000831
H       -1.128750     2.258337     0.001233
H        0.428264     1.364036     0.009423
6
Step 99, Time 19.800 fs, State 2, Energy -79.21439055 Ha, Coefficient [-0.03878668-0.00992176j  0.99888814-0.02489229j]
C       -1.302568     0.210616     0.000265
H       -0.752173    -0.694342    -0.000554
H       -2.364537     0.228430    -0.002923
C       -0.626695     1.379218    -0.000894
H       -1.132503     2.247952    -0.002957
H        0.409248     1.358152     0.013956
6
Step 100, Time 20.000 fs, State 2, Energy -79.60530329 Ha, Coefficient [-0.01096905-0.03848631j  0.00998004-0.99914908j]
C       -1.304826     0.210513     0.000653
H       -0.735079    -0.690788    -0.005631
H       -2.360237     0.236164    -0.002675
C       -0.624541     1.378824    -0.000842
H       -1.136405     2.244702    -0.007280
H        0.392996     1.356030     0.017858
6
Step 101, Time 20.200 fs, State 2, Energy -79.93389251 Ha, Coefficient [0.01132565+0.03319644j 0.92816427-0.37051425j]
C       -1.306252     0.210224     0.000932
H       -0.725786    -0.688463    -0.009781
H       -2.358081     0.240429    -0.002321
C       -0.622886     1.377707    -0.000667
H       -1.139694     2.250241    -0.011566
H        0.382103     1.360661     0.020535
6
Step 102, Time 20.400 fs, State 2, Energy -79.64673406 Ha, Coefficient [-0.03602259+0.01438281j -0.00243283-0.99924451j]
C       -1.305478     0.209858     0.000945
H       -0.734560    -0.684134    -0.010864
H       -2.359225     0.238027    -0.001742
C       -0.622297     1.375821    -0.000371
H       -1.143054     2.263738    -0.015375
H        0.379132     1.372067     0.021160
6
Step 103, Time 20.600 fs, State 2, Energy -79.32772757 Ha, Coefficient [-0.00719521+0.04287965j  0.63733164+0.76936204j]
C       -1.303451     0.209307     0.000812
H       -0.751338    -0.680006    -0.010130
H       -2.363044     0.229934    -0.001021
C       -0.622707     1.373965     0.000062
H       -1.146870     2.282091    -0.018235
H        0.384288     1.386367     0.019001
6
Step 104, Time 20.800 fs, State 2, Energy -79.10458691 Ha, Coefficient [0.00367405-0.03994845j 0.08478754+0.99559113j]
C       -1.300971     0.208323     0.000465
H       -0.769750    -0.677309    -0.008729
H       -2.368205     0.217390    -0.000478
C       -0.623870     1.373211     0.000762
H       -1.150618     2.301094    -0.019397
H        0.395918     1.397913     0.014008
6
Step 105, Time 21.000 fs, State 2, Energy -79.00266809 Ha, Coefficient [0.02956416+0.02571823j 0.31464031+0.94840182j]
C       -1.298466     0.206828    -0.000042
H       -0.787563    -0.676515    -0.006818
H       -2.373983     0.202202    -0.000082
C       -0.625542     1.374276     0.001550
H       -1.152505     2.316092    -0.017674
H        0.411468     1.402427     0.006633
6
Step 106, Time 21.200 fs, State 2, Energy -78.92813449 Ha, Coefficient [-0.01759747+0.03377241j  0.92091345+0.38790228j]
C       -1.296697     0.205004    -0.000611
H       -0.802105    -0.678181    -0.004503
H       -2.377461     0.186944     0.000199
C       -0.627325     1.377117     0.002213
H       -1.151237     2.323532    -0.012736
H        0.428392     1.399797    -0.002027
6
Step 107, Time 21.400 fs, State 2, Energy -78.76376715 Ha, Coefficient [-0.02046877+0.03426685j -0.23885498-0.97023456j]
C       -1.296938     0.203261    -0.001124
H       -0.810248    -0.683287    -0.002176
H       -2.371772     0.175247     0.000506
C       -0.628317     1.380608     0.002676
H       -1.149061     2.326407    -0.006115
H        0.443344     1.392889    -0.010674
6
Step 108, Time 21.600 fs, State 2, Energy -78.66405290 Ha, Coefficient [0.02173295+0.03808661j 0.13391034+0.99002278j]
C       -1.299345     0.201876    -0.001542
H       -0.811720    -0.691410    -0.000009
H       -2.357093     0.168627     0.000844
C       -0.627961     1.383712     0.002964
H       -1.147927     2.329214     0.001180
H        0.453450     1.384335    -0.018926
6
Step 109, Time 21.800 fs, State 2, Energy -78.65100438 Ha, Coefficient [ 0.03290602-0.04091796j -0.13556831-0.98937563j]
C       -1.302591     0.201375    -0.001807
H       -0.809374    -0.701409     0.001905
H       -2.340825     0.164917     0.000981
C       -0.626171     1.385940     0.002960
H       -1.148755     2.331352     0.007636
H        0.453022     1.375336    -0.024232
6
Step 110, Time 22.000 fs, State 2, Energy -78.82854679 Ha, Coefficient [ 0.01954858-0.04864746j -0.96986758+0.2379247j ]
C       -1.305448     0.202418    -0.001846
H       -0.804825    -0.712898     0.003616
H       -2.326619     0.161869     0.000871
C       -0.623934     1.386829     0.002548
H       -1.151532     2.330364     0.011900
H        0.444423     1.367833    -0.024718
6
Step 111, Time 22.200 fs, State 2, Energy -79.09985045 Ha, Coefficient [ 0.03473695+0.05023014j -0.94509702-0.32103254j]
C       -1.306929     0.205336    -0.001553
H       -0.797595    -0.725149     0.005296
H       -2.315928     0.160483     0.000542
C       -0.622750     1.386107     0.001674
H       -1.155528     2.322475     0.013120
H        0.434036     1.363195    -0.020359
6
Step 112, Time 22.400 fs, State 2, Energy -79.20949307 Ha, Coefficient [-0.03038985-0.05340643j  0.22826707-0.97165753j]
C       -1.306373     0.208599    -0.000992
H       -0.787626    -0.731189     0.006430
H       -2.312241     0.164959     0.000372
C       -0.623393     1.384258     0.000474
H       -1.159664     2.306738     0.011605
H        0.425541     1.363647    -0.012208
6
Step 113, Time 22.600 fs, State 2, Energy -78.98645631 Ha, Coefficient [ 0.06166039-0.01296024j -0.13818608-0.98840004j]
C       -1.303809     0.210189    -0.000343
H       -0.777340    -0.723422     0.006370
H       -2.317555     0.178620     0.000739
C       -0.625584     1.382030    -0.000816
H       -1.163580     2.286235     0.008860
H        0.420047     1.370325    -0.002126
6
Step 114, Time 22.800 fs, State 2, Energy -78.93605507 Ha, Coefficient [-0.00152828+0.06141498j -0.79728315-0.60047102j]
C       -1.300502     0.210301     0.000274
H       -0.767145    -0.709284     0.005769
H       -2.327754     0.198766     0.001405
C       -0.628289     1.379862    -0.002035
H       -1.167187     2.265464     0.005779
H        0.416485     1.381306     0.008067
6
Step 115, Time 23.000 fs, State 2, Energy -79.31139613 Ha, Coefficient [0.05506661+0.03114289j 0.9820696 -0.17758684j]
C       -1.297332     0.209730     0.000800
H       -0.756905    -0.696049     0.005122
H       -2.340102     0.220375     0.002078
C       -0.631018     1.377996    -0.003071
H       -1.168763     2.247005     0.002119
H        0.414916     1.393954     0.017780
6
Step 116, Time 23.200 fs, State 2, Energy -79.91623611 Ha, Coefficient [-0.01839019-0.05932832j  0.65430063+0.7536794j ]
C       -1.294580     0.208807     0.001116
H       -0.748512    -0.686406     0.004568
H       -2.354807     0.242022     0.002846
C       -0.633408     1.376503    -0.003779
H       -1.166211     2.234431    -0.001989
H        0.414359     1.404027     0.026348
6
Step 117, Time 23.400 fs, State 2, Energy -80.41289644 Ha, Coefficient [-3.47922072e-04-0.07651819j  9.55906303e-01-0.28352775j]
C       -1.293179     0.208124     0.001100
H       -0.743254    -0.684628     0.004628
H       -2.367856     0.263118     0.003433
C       -0.634339     1.375333    -0.003962
H       -1.159699     2.233174    -0.005138
H        0.410040     1.404487     0.031216
6
Step 118, Time 23.600 fs, State 2, Energy -79.99781570 Ha, Coefficient [-0.04128577+0.06009894j  0.1488571 +0.98616691j]
C       -1.295022     0.208888     0.000705
H       -0.741592    -0.692640     0.005540
H       -2.361538     0.269332     0.002585
C       -0.633213     1.374615    -0.003491
H       -1.151747     2.244537    -0.006566
H        0.402653     1.394379     0.031673
6
Step 119, Time 23.800 fs, State 2, Energy -79.46453031 Ha, Coefficient [-0.03923596+0.06286458j  0.28706264-0.95504116j]
C       -1.298677     0.210593     0.000029
H       -0.744971    -0.706641     0.006860
H       -2.343142     0.257872     0.000584
C       -0.631081     1.374724    -0.002498
H       -1.143919     2.263147    -0.006961
H        0.397951     1.379616     0.028981
6
Step 120, Time 24.000 fs, State 2, Energy -79.58175835 Ha, Coefficient [-0.0724598 +0.01509367j -0.98854361-0.13154198j]
C       -1.302462     0.211846    -0.000768
H       -0.753443    -0.720629     0.007867
H       -2.325451     0.238333    -0.001616
C       -0.628560     1.375583    -0.001155
H       -1.138001     2.285483    -0.007277
H        0.397880     1.365648     0.023972
6
Step 121, Time 24.200 fs, State 2, Energy -79.63559609 Ha, Coefficient [-0.0376643 -0.06436272j -0.40434818+0.91155987j]
C       -1.304965     0.211145    -0.001593
H       -0.766921    -0.721868     0.007876
H       -2.314634     0.215136    -0.003682
C       -0.626501     1.377426     0.000458
H       -1.136240     2.305447    -0.006753
H        0.404072     1.356499     0.016123
6
Step 122, Time 24.400 fs, State 2, Energy -79.22331230 Ha, Coefficient [-0.01261707+0.07210386j -0.90422542-0.42073534j]
C       -1.305359     0.208398    -0.002383
H       -0.781818    -0.708784     0.006918
H       -2.315195     0.190634    -0.005340
C       -0.625699     1.380436     0.002157
H       -1.138325     2.315266    -0.005001
H        0.416752     1.354969     0.006157
6
Step 123, Time 24.600 fs, State 2, Energy -78.89609897 Ha, Coefficient [-0.06603633+0.03216687j -0.77472847+0.62801298j]
C       -1.304547     0.205084    -0.003046
H       -0.795108    -0.692884     0.005529
H       -2.323406     0.166406    -0.006781
C       -0.625618     1.383952     0.003740
H       -1.142667     2.316384    -0.002805
H        0.431957     1.359766    -0.004177
6
Step 124, Time 24.800 fs, State 2, Energy -79.18231360 Ha, Coefficient [ 0.06066835-0.04536646j -0.84040731-0.53663469j]
C       -1.303196     0.202384    -0.003456
H       -0.807301    -0.679715     0.003766
H       -2.335183     0.143221    -0.007998
C       -0.625837     1.386957     0.005040
H       -1.147716     2.315391    -0.000619
H        0.447485     1.367136    -0.013987
6
Step 125, Time 25.000 fs, State 2, Energy -79.73206100 Ha, Coefficient [ 0.05491524+0.01115544j -0.99528026-0.07922802j]
C       -1.301319     0.201456    -0.003339
H       -0.818066    -0.670945     0.000747
H       -2.346760     0.127268    -0.008317
C       -0.626271     1.387664     0.005687
H       -1.153419     2.317040     0.001380
H        0.458333     1.375316    -0.021749
6
Step 126, Time 25.200 fs, State 2, Energy -79.46122357 Ha, Coefficient [0.04332367-0.03676214j 0.87917925+0.47309138j]
C       -1.300575     0.202834    -0.002648
H       -0.823575    -0.672323    -0.003975
H       -2.347410     0.129782    -0.006961
C       -0.625376     1.384864     0.005382
H       -1.160476     2.325298     0.002872
H        0.452009     1.382867    -0.024470
6
Step 127, Time 25.400 fs, State 2, Energy -79.25825082 Ha, Coefficient [-0.04740313+0.02989969j -0.71658182+0.69524776j]
C       -1.301193     0.205172    -0.001584
H       -0.822781    -0.681274    -0.009251
H       -2.338542     0.148092    -0.004553
C       -0.623581     1.380178     0.004370
H       -1.167643     2.337456     0.003706
H        0.435497     1.389326    -0.023060
6
Step 128, Time 25.600 fs, State 2, Energy -79.09731996 Ha, Coefficient [ 0.03757443-0.04155219j -0.97365383+0.22104252j]
C       -1.301445     0.207429    -0.000329
H       -0.817583    -0.693214    -0.014152
H       -2.331409     0.171654    -0.002137
C       -0.623483     1.377553     0.003124
H       -1.163511     2.327000     0.003026
H        0.420869     1.392549    -0.019997
6
Step 129, Time 25.800 fs, State 2, Energy -79.08034610 Ha, Coefficient [-0.02321413+0.05371362j -0.98155237-0.18201895j]
C       -1.301366     0.209113     0.001075
H       -0.808598    -0.706401    -0.018233
H       -2.328204     0.196163     0.000338
C       -0.624343     1.376931     0.001596
H       -1.154183     2.303626     0.000371
H        0.408656     1.391942    -0.014253
6
Step 130, Time 26.000 fs, State 2, Energy -79.36017698 Ha, Coefficient [0.03259368+0.04336441j 0.97041541-0.23526816j]
C       -1.301135     0.210047     0.002438
H       -0.796312    -0.718333    -0.021156
H       -2.328212     0.220206     0.002915
C       -0.625557     1.377309    -0.000076
H       -1.145022     2.278137    -0.002761
H        0.398926     1.389691    -0.007100
6
Step 131, Time 26.200 fs, State 2, Energy -79.70624857 Ha, Coefficient [-0.05449255+0.0181013j   0.58956311-0.80567875j]
C       -1.300882     0.209933     0.003578
H       -0.780978    -0.724438    -0.021954
H       -2.331598     0.241487     0.005057
C       -0.627052     1.378189    -0.001685
H       -1.137325     2.254781    -0.005920
H        0.394094     1.388739     0.000314
6
Step 132, Time 26.400 fs, State 2, Energy -79.90736580 Ha, Coefficient [0.0573641 +0.00274563j 0.99809758+0.02242874j]
C       -1.300647     0.208729     0.004280
H       -0.763664    -0.722113    -0.019697
H       -2.338544     0.257648     0.006038
C       -0.628867     1.379129    -0.002962
H       -1.131064     2.237309    -0.009029
H        0.396272     1.390866     0.007035
6
Step 133, Time 26.600 fs, State 2, Energy -79.78779691 Ha, Coefficient [-0.02827655-0.04990782j  0.99834277-0.00462176j]
C       -1.300499     0.207066     0.004385
H       -0.746563    -0.715221    -0.014729
H       -2.347451     0.266741     0.005767
C       -0.630865     1.379728    -0.003696
H       -1.126264     2.229427    -0.011750
H        0.405333     1.395443     0.012555
6
Step 134, Time 26.800 fs, State 2, Energy -79.71891553 Ha, Coefficient [0.01428681+0.05556911j 0.82327071-0.5647418j ]
C       -1.300233     0.206054     0.003830
H       -0.737760    -0.709462    -0.008283
H       -2.353912     0.262772     0.005664
C       -0.632579     1.379963    -0.003909
H       -1.125015     2.232735    -0.013340
H        0.418993     1.399597     0.016952
6
Step 135, Time 27.000 fs, State 2, Energy -79.41996014 Ha, Coefficient [ 0.0414498 +0.03529708j -0.86247166+0.50316863j]
C       -1.299893     0.206420     0.002652
H       -0.742522    -0.707684    -0.000483
H       -2.354509     0.244177     0.005574
C       -0.633076     1.379883    -0.003602
H       -1.130042     2.246894    -0.012759
H        0.431247     1.398853     0.019045
6
Step 136, Time 27.200 fs, State 2, Energy -78.68518098 Ha, Coefficient [0.05317628+0.01339593j 0.96815427-0.24427474j]
C       -1.299905     0.207367     0.001085
H       -0.753037    -0.710061     0.007929
H       -2.353896     0.223037     0.004839
C       -0.631711     1.379732    -0.002797
H       -1.140828     2.268422    -0.009603
H        0.435823     1.391368     0.017279
6
Step 137, Time 27.400 fs, State 2, Energy -78.10126705 Ha, Coefficient [ 0.02515583+0.04855233j -0.08173079-0.99515322j]
C       -1.300108     0.208320    -0.000574
H       -0.766427    -0.714627     0.016270
H       -2.354102     0.202283     0.004434
C       -0.629256     1.379839    -0.001847
H       -1.153983     2.291771    -0.005400
H        0.435733     1.380700     0.013593
6
Step 138, Time 27.600 fs, State 2, Energy -78.03889264 Ha, Coefficient [ 0.00737816+0.05150145j -0.90683074+0.41827165j]
C       -1.300426     0.209046    -0.002215
H       -0.780395    -0.719523     0.024545
H       -2.354737     0.181941     0.003755
C       -0.626549     1.380156    -0.000878
H       -1.167573     2.315100    -0.000922
H        0.435455     1.370186     0.009537
6
Step 139, Time 27.800 fs, State 2, Energy -78.69463012 Ha, Coefficient [0.0124217 -0.03330029j 0.99656744-0.07476715j]
C       -1.300768     0.209141    -0.003694
H       -0.794007    -0.721972     0.031185
H       -2.355101     0.163845     0.002952
C       -0.623970     1.380730     0.000040
H       -1.180291     2.337218     0.003904
H        0.435499     1.360627     0.005544
6
Step 140, Time 28.000 fs, State 2, Energy -78.69051561 Ha, Coefficient [-0.03155795-0.02820492j -0.9679809 -0.24742992j]
C       -1.300599     0.207701    -0.004721
H       -0.805752    -0.717953     0.034261
H       -2.355383     0.151571     0.002334
C       -0.623710     1.383885     0.000851
H       -1.175218     2.333139     0.007376
H        0.437344     1.352530     0.002194
6
Step 141, Time 28.200 fs, State 2, Energy -78.81745059 Ha, Coefficient [-0.03492922-0.02614876j -0.05375284+0.99760053j]
C       -1.300611     0.205062    -0.005064
H       -0.812919    -0.707273     0.031963
H       -2.352697     0.148053     0.002635
C       -0.624772     1.387752     0.001433
H       -1.158834     2.314911     0.008652
H        0.438232     1.348966     0.000071
6
Step 142, Time 28.400 fs, State 2, Energy -79.12671332 Ha, Coefficient [ 0.01134098+0.04146807j -0.74656318+0.6639241j ]
C       -1.301231     0.202484    -0.004764
H       -0.813700    -0.692968     0.023955
H       -2.344787     0.154845     0.004651
C       -0.625833     1.389714     0.001672
H       -1.142205     2.299118     0.009625
H        0.434504     1.350993    -0.001331
6
Step 143, Time 28.600 fs, State 2, Energy -79.52345351 Ha, Coefficient [-0.01807154+0.03910957j  0.97876548+0.2004046j ]
C       -1.301717     0.201727    -0.003922
H       -0.810252    -0.680666     0.012149
H       -2.335765     0.167383     0.007613
C       -0.627280     1.388866     0.001622
H       -1.124711     2.288170     0.010080
H        0.427570     1.356234    -0.002377
6
Step 144, Time 28.800 fs, State 2, Energy -79.70066954 Ha, Coefficient [-0.00621057-0.04238468j  0.85407333-0.51838568j]
C       -1.301649     0.203323    -0.002697
H       -0.805167    -0.674317    -0.001520
H       -2.329149     0.181629     0.010365
C       -0.629066     1.385433     0.001386
H       -1.107903     2.282645     0.009231
H        0.419531     1.363050    -0.002394
6
Step 145, Time 29.000 fs, State 2, Energy -79.74446860 Ha, Coefficient [-0.01917797+0.0384462j   0.59658744-0.80139723j]
C       -1.301377     0.206305    -0.001304
H       -0.799775    -0.675353    -0.015517
H       -2.326251     0.195686     0.012379
C       -0.630434     1.380819     0.001117
H       -1.095603     2.280902     0.007093
H        0.412000     1.371219    -0.001662
6
Step 146, Time 29.200 fs, State 2, Energy -79.97193734 Ha, Coefficient [0.04146387+0.00473043j 0.84400443+0.5347101j ]
C       -1.301432     0.209546     0.000131
H       -0.794277    -0.683011    -0.028831
H       -2.327627     0.208960     0.013754
C       -0.630592     1.376339     0.000840
H       -1.091764     2.280428     0.004054
H        0.406582     1.380839    -0.000475
6
Step 147, Time 29.400 fs, State 2, Energy -79.91684433 Ha, Coefficient [-0.03258946-0.03294351j -0.03347011+0.99836487j]
C       -1.302019     0.212251     0.001521
H       -0.787928    -0.694932    -0.039796
H       -2.333174     0.221398     0.013780
C       -0.629453     1.372742     0.000542
H       -1.097413     2.279846     0.000948
H        0.404847     1.391536     0.000545
6
Step 148, Time 29.600 fs, State 2, Energy -79.77026125 Ha, Coefficient [0.03963689+0.00442759j 0.13789332+0.98964375j]
C       -1.302943     0.213693     0.002643
H       -0.780266    -0.706698    -0.045548
H       -2.342416     0.232156     0.011061
C       -0.627486     1.370607     0.000330
H       -1.111185     2.278984    -0.001915
H        0.407781     1.401661     0.001035
6
Step 149, Time 29.800 fs, State 2, Energy -79.35799661 Ha, Coefficient [ 0.01573773-0.03856762j -0.54557272-0.83702764j]
C       -1.303517     0.213244     0.003180
H       -0.773126    -0.712065    -0.042458
H       -2.354636     0.240173     0.004684
C       -0.625534     1.370295     0.000300
H       -1.130278     2.278535    -0.004179
H        0.415527     1.408528     0.000542
6
Step 150, Time 30.000 fs, State 2, Energy -78.76872033 Ha, Coefficient [ 0.02173273-0.03703905j -0.38365184+0.92247876j]
C       -1.303416     0.211160     0.003006
H       -0.768232    -0.710326    -0.031056
H       -2.367734     0.243824    -0.003978
C       -0.624046     1.371739     0.000506
H       -1.151743     2.279639    -0.005913
H        0.426263     1.409661    -0.000836
6
Step 151, Time 30.200 fs, State 2, Energy -78.33557512 Ha, Coefficient [-6.20151347e-04+0.04458912j -7.98342265e-01+0.60055063j]
C       -1.303007     0.208555     0.002322
H       -0.764775    -0.707163    -0.015708
H       -2.378589     0.241055    -0.012846
C       -0.622941     1.374495     0.000919
H       -1.173209     2.282808    -0.007292
H        0.437083     1.404291    -0.002711
6
Step 152, Time 30.400 fs, State 2, Energy -78.16143311 Ha, Coefficient [-0.03448072+0.02765846j -0.01789841+0.99886222j]
C       -1.302987     0.206120     0.001390
H       -0.761778    -0.705441     0.000703
H       -2.382809     0.230731    -0.020397
C       -0.622015     1.378262     0.001365
H       -1.192250     2.286238    -0.008288
H        0.446072     1.393603    -0.004776
6
Step 153, Time 30.600 fs, State 2, Energy -78.28291944 Ha, Coefficient [-0.02964918-0.03284918j -0.11424343+0.99246677j]
C       -1.303682     0.203836     0.000386
H       -0.758993    -0.705031     0.016651
H       -2.378687     0.216714    -0.025286
C       -0.621715     1.382785     0.001646
H       -1.202890     2.286863    -0.008345
H        0.454525     1.379903    -0.007159
6
Step 154, Time 30.800 fs, State 2, Energy -78.47000870 Ha, Coefficient [-0.02098121+0.03769801j -0.98159896-0.1860165j ]
C       -1.304367     0.202072    -0.000429
H       -0.757105    -0.705673     0.030369
H       -2.369862     0.205008    -0.027139
C       -0.623165     1.386979     0.001528
H       -1.196886     2.284542    -0.006674
H        0.463242     1.365620    -0.009583
6
Step 155, Time 31.000 fs, State 2, Energy -78.66829441 Ha, Coefficient [-0.02102158+0.03545606j  0.94567912+0.32247786j]
C       -1.303844     0.202173    -0.000709
H       -0.758414    -0.707717     0.040416
H       -2.360572     0.196928    -0.026973
C       -0.626085     1.388700     0.000733
H       -1.177092     2.284160    -0.003345
H        0.464030     1.354414    -0.010319
6
Step 156, Time 31.200 fs, State 2, Energy -78.50300500 Ha, Coefficient [-0.00171703+0.04107611j -0.62367519+0.78060173j]
C       -1.302323     0.204196    -0.000432
H       -0.763602    -0.708820     0.041798
H       -2.350352     0.193570    -0.021460
C       -0.628885     1.387052    -0.000568
H       -1.152054     2.289255    -0.000199
H        0.449200     1.349305    -0.008150
6
Step 157, Time 31.400 fs, State 2, Energy -78.58515969 Ha, Coefficient [-0.03414443+0.0229234j   0.12761152-0.99097123j]
C       -1.300253     0.206549     0.000236
H       -0.772377    -0.706836     0.034687
H       -2.340526     0.194030    -0.011536
C       -0.631222     1.383807    -0.001965
H       -1.127103     2.297789     0.001993
H        0.426387     1.348961    -0.004472
6
Step 158, Time 31.600 fs, State 2, Energy -79.10872362 Ha, Coefficient [-0.01428067+0.03844004j  0.69511998-0.71772323j]
C       -1.298312     0.208709     0.000877
H       -0.781881    -0.704633     0.025548
H       -2.332623     0.195142    -0.001114
C       -0.632666     1.380302    -0.003189
H       -1.106106     2.305932     0.004309
H        0.401061     1.353521    -0.001125
6
Step 159, Time 31.800 fs, State 2, Energy -80.02823067 Ha, Coefficient [0.03479918+0.02338022j 0.39952653+0.91576249j]
C       -1.297046     0.210178     0.001341
H       -0.790445    -0.703161     0.016234
H       -2.328287     0.196254     0.009188
C       -0.632586     1.377588    -0.004112
H       -1.093707     2.308103     0.006126
H        0.376849     1.363612     0.001539
6
Step 160, Time 32.000 fs, State 2, Energy -80.42005043 Ha, Coefficient [-0.03574365+0.02387604j  0.99613724+0.07656977j]
C       -1.296454     0.210564     0.001596
H       -0.796760    -0.701759     0.006301
H       -2.330075     0.196385     0.019252
C       -0.631127     1.376368    -0.004570
H       -1.092297     2.301121     0.006549
H        0.359111     1.378988     0.003407
6
Step 161, Time 32.200 fs, State 2, Energy -80.39211795 Ha, Coefficient [-0.0167391 -0.03571069j  0.32764013-0.94397908j]
C       -1.296576     0.209613     0.001699
H       -0.799254    -0.699906    -0.003579
H       -2.338370     0.194637     0.028192
C       -0.628869     1.376944    -0.004549
H       -1.101337     2.287500     0.005597
H        0.353484     1.396980     0.003823
6
Step 162, Time 32.400 fs, State 2, Energy -80.14070919 Ha, Coefficient [-0.04881536-0.0120516j  -0.08283347+0.99529415j]
C       -1.297580     0.207348     0.001625
H       -0.797153    -0.697461    -0.012688
H       -2.350264     0.191973     0.035137
C       -0.626492     1.378713    -0.004048
H       -1.115183     2.276558     0.004110
H        0.360761     1.414052     0.002397
6
Step 163, Time 32.600 fs, State 2, Energy -79.80591055 Ha, Coefficient [ 0.05178847-0.03078063j -0.20400747+0.97711384j]
C       -1.299547     0.204388     0.001334
H       -0.791111    -0.695535    -0.019251
H       -2.360829     0.190167     0.037828
C       -0.624369     1.380903    -0.003052
H       -1.130676     2.271995     0.002279
H        0.378916     1.427671    -0.000305
6
Step 164, Time 32.800 fs, State 2, Energy -79.38127186 Ha, Coefficient [-0.02596045-0.05529016j -0.04061491-0.99730611j]
C       -1.302444     0.201704     0.000817
H       -0.783206    -0.696159    -0.020767
H       -2.364620     0.192327     0.033402
C       -0.622621     1.382613    -0.001603
H       -1.145463     2.274169     0.000353
H        0.403275     1.435560    -0.003550
6
Step 165, Time 33.000 fs, State 2, Energy -78.94883487 Ha, Coefficient [ 0.02710913-0.0675616j  -0.65891424-0.74868722j]
C       -1.305400     0.200399     0.000048
H       -0.776418    -0.700682    -0.017465
H       -2.363064     0.199037     0.023501
C       -0.621405     1.383158     0.000142
H       -1.157670     2.281599    -0.001507
H        0.427878     1.435002    -0.006711
6
Step 166, Time 33.200 fs, State 2, Energy -78.45193073 Ha, Coefficient [-0.00763873+0.07051396j  0.6955574 -0.71496107j]
C       -1.307102     0.201259    -0.000912
H       -0.772463    -0.708712    -0.011229
H       -2.361015     0.207940     0.011036
C       -0.621053     1.382341     0.001998
H       -1.167018     2.292212    -0.003406
H        0.447312     1.423002    -0.009260
6
Step 167, Time 33.400 fs, State 2, Energy -77.97105915 Ha, Coefficient [ 0.04174492+0.05584445j -0.98786882+0.13875863j]
C       -1.306980     0.204057    -0.001792
H       -0.770707    -0.718843    -0.004362
H       -2.360508     0.216477    -0.002066
C       -0.621627     1.380578     0.003684
H       -1.174948     2.304324    -0.005621
H        0.458353     1.400156    -0.010412
6
Step 168, Time 33.600 fs, State 2, Energy -78.11554769 Ha, Coefficient [ 0.04041458+0.05515289j -0.14243539+0.98743961j]
C       -1.306072     0.207435    -0.002462
H       -0.769068    -0.729716     0.002382
H       -2.360322     0.224033    -0.015272
C       -0.622683     1.378683     0.005073
H       -1.181615     2.315785    -0.007847
H        0.464962     1.374339    -0.010291
6
Step 169, Time 33.800 fs, State 2, Energy -78.53450105 Ha, Coefficient [-0.01509677-0.06467175j -0.73066095-0.67950293j]
C       -1.304506     0.210593    -0.002931
H       -0.767453    -0.736941     0.008693
H       -2.360508     0.230015    -0.027603
C       -0.624945     1.377537     0.005951
H       -1.177915     2.317464    -0.008301
H        0.468137     1.349924    -0.008689
6
Step 170, Time 34.000 fs, State 2, Energy -78.69627288 Ha, Coefficient [-0.06374473-0.00770663j  0.432568  +0.89931204j]
C       -1.302151     0.212495    -0.003057
H       -0.767640    -0.732477     0.012252
H       -2.361935     0.234006    -0.036814
C       -0.627269     1.376684     0.006117
H       -1.165884     2.310871    -0.007952
H        0.457344     1.335564    -0.003862
6
Step 171, Time 34.200 fs, State 2, Energy -78.81359246 Ha, Coefficient [-0.05532231-0.03031086j  0.77826328-0.62476153j]
C       -1.299554     0.213153    -0.002801
H       -0.768541    -0.717093     0.011689
H       -2.362950     0.234888    -0.040731
C       -0.628829     1.375560     0.005614
H       -1.152695     2.301401    -0.007825
H        0.433716     1.334323     0.003449
6
Step 172, Time 34.400 fs, State 2, Energy -79.21438200 Ha, Coefficient [0.0010341+0.06724479j 0.6669168+0.742091j  ]
C       -1.297694     0.213215    -0.002380
H       -0.766962    -0.697592     0.007272
H       -2.359680     0.230701    -0.036998
C       -0.629747     1.374582     0.004573
H       -1.142063     2.290637    -0.007567
H        0.407013     1.340677     0.011251
6
Step 173, Time 34.600 fs, State 2, Energy -79.76346775 Ha, Coefficient [-0.02168446-0.05959055j  0.81794204+0.57179504j]
C       -1.296811     0.212743    -0.001827
H       -0.763209    -0.679143     0.000917
H       -2.353404     0.222041    -0.027830
C       -0.630044     1.374168     0.003083
H       -1.134001     2.280232    -0.006798
H        0.381932     1.351854     0.018836
6
Step 174, Time 34.800 fs, State 2, Energy -80.32123662 Ha, Coefficient [0.05352901-0.03820591j 0.27713498-0.95857767j]
C       -1.296795     0.211296    -0.001180
H       -0.758435    -0.664194    -0.005978
H       -2.348268     0.211326    -0.017061
C       -0.629739     1.374610     0.001459
H       -1.128689     2.272936    -0.005612
H        0.362883     1.366897     0.025410
6
Step 175, Time 35.000 fs, State 2, Energy -80.61158479 Ha, Coefficient [-0.06155051+0.01681911j  0.7034536 -0.70787123j]
C       -1.297486     0.208861    -0.000521
H       -0.754338    -0.655180    -0.012800
H       -2.346023     0.199920    -0.005718
C       -0.629109     1.375882    -0.000082
H       -1.126085     2.271524    -0.003943
H        0.354678     1.384547     0.029740
6
Step 176, Time 35.200 fs, State 2, Energy -80.50633306 Ha, Coefficient [0.03525304-0.05357366j 0.40062713-0.91399398j]
C       -1.298582     0.205892     0.000041
H       -0.754023    -0.654318    -0.018221
H       -2.346372     0.189208     0.005718
C       -0.628438     1.377724    -0.001393
H       -1.125789     2.277540    -0.001489
H        0.359468     1.401830     0.030195
6
Step 177, Time 35.400 fs, State 2, Energy -80.02995707 Ha, Coefficient [-0.06321092-0.01316151j  0.68273865+0.7278043j ]
C       -1.299766     0.203070     0.000402
H       -0.760442    -0.662633    -0.020374
H       -2.347750     0.181047     0.016255
C       -0.627767     1.379717    -0.002378
H       -1.127329     2.290735     0.001886
H        0.374921     1.414976     0.025870
6
Step 178, Time 35.600 fs, State 2, Energy -79.35738631 Ha, Coefficient [-0.01110192+0.06125168j -0.92938035-0.3638367j ]
C       -1.300898     0.201012     0.000501
H       -0.773657    -0.678853    -0.018125
H       -2.348566     0.176669     0.024561
C       -0.626930     1.381399    -0.002983
H       -1.130591     2.309042     0.005836
H        0.395735     1.421750     0.017399
6
Step 179, Time 35.800 fs, State 2, Energy -78.81131829 Ha, Coefficient [ 0.0166579 +0.05728699j -0.12537592+0.99031389j]
C       -1.301994     0.200126     0.000407
H       -0.790523    -0.699781    -0.012036
H       -2.348399     0.175613     0.029656
C       -0.625772     1.382397    -0.003251
H       -1.136049     2.328931     0.009876
H        0.417149     1.422506     0.006493
6
Step 180, Time 36.000 fs, State 2, Energy -78.57133694 Ha, Coefficient [ 0.01610247-0.06391546j -0.50829221-0.85865858j]
C       -1.302975     0.200744     0.000317
H       -0.807477    -0.722923    -0.003800
H       -2.348199     0.176095     0.031395
C       -0.624430     1.382959    -0.003299
H       -1.143881     2.341684     0.013070
H        0.437432     1.418352    -0.005028
6
Step 181, Time 36.200 fs, State 2, Energy -78.41082349 Ha, Coefficient [0.04956132+0.04681107j 0.57898576-0.81248255j]
C       -1.303521     0.202548     0.000237
H       -0.822752    -0.745801     0.004996
H       -2.349138     0.177362     0.030378
C       -0.623744     1.384189    -0.003014
H       -1.149925     2.334996     0.013015
H        0.458019     1.410510    -0.015205
6
Step 182, Time 36.400 fs, State 2, Energy -78.68655109 Ha, Coefficient [-0.05244766-0.046616j   -0.78508728+0.61539756j]
C       -1.303632     0.204460     0.000069
H       -0.833762    -0.758680     0.014843
H       -2.351489     0.180276     0.026511
C       -0.623701     1.385476    -0.002475
H       -1.153412     2.317980     0.010084
H        0.475668     1.399356    -0.022662
6
Step 183, Time 36.600 fs, State 2, Energy -78.57231422 Ha, Coefficient [-0.01325846+0.08045989j  0.25116499-0.96450328j]
C       -1.303765     0.205957     0.000071
H       -0.835206    -0.746949     0.023936
H       -2.355544     0.185031     0.020795
C       -0.622471     1.385008    -0.002197
H       -1.157942     2.302682     0.004934
H        0.472631     1.385908    -0.024227
6
Step 184, Time 36.800 fs, State 2, Energy -78.47839890 Ha, Coefficient [0.03755175-0.07829554j 0.91900131+0.38457284j]
C       -1.304006     0.206945     0.000302
H       -0.828722    -0.719326     0.029717
H       -2.360165     0.191917     0.014603
C       -0.620186     1.383321    -0.002129
H       -1.164243     2.289224    -0.002087
H        0.452711     1.373184    -0.020361
6
Step 185, Time 37.000 fs, State 2, Energy -79.01791059 Ha, Coefficient [0.05938387+0.0659767j  0.95534611+0.28184116j]
C       -1.303814     0.207764     0.000643
H       -0.817702    -0.686904     0.031720
H       -2.365917     0.200812     0.008537
C       -0.618555     1.381012    -0.001962
H       -1.169371     2.276090    -0.009544
H        0.430850     1.362757    -0.014884
6
Step 186, Time 37.200 fs, State 2, Energy -79.78261409 Ha, Coefficient [-0.08839872+0.00352893j  0.97277163+0.21421616j]
C       -1.303090     0.208793     0.001087
H       -0.802910    -0.656057     0.029596
H       -2.372075     0.212230     0.003057
C       -0.618164     1.377899    -0.001703
H       -1.169986     2.265258    -0.016881
H        0.409545     1.356152    -0.008330
6
Step 187, Time 37.400 fs, State 2, Energy -80.37933556 Ha, Coefficient [-0.0247311 -0.08324264j  0.35891279-0.92932268j]
C       -1.302363     0.210265     0.001673
H       -0.784323    -0.633763     0.023285
H       -2.375769     0.226738    -0.001339
C       -0.619086     1.373933    -0.001457
H       -1.164506     2.260433    -0.023481
H        0.391492     1.353894    -0.000934
6
Step 188, Time 37.600 fs, State 2, Energy -80.63755059 Ha, Coefficient [-0.014882  +0.09015394j  0.88006849-0.46597237j]
C       -1.302195     0.211971     0.002382
H       -0.763218    -0.624994     0.013942
H       -2.375378     0.242442    -0.004787
C       -0.621028     1.369843    -0.001285
H       -1.153850     2.263712    -0.028584
H        0.380476     1.354556     0.006468
6
Step 189, Time 37.800 fs, State 2, Energy -80.62990606 Ha, Coefficient [0.02930668-0.09018714j 0.98190416+0.16392567j]
C       -1.302665     0.213470     0.002919
H       -0.742007    -0.629936     0.003580
H       -2.370565     0.252607    -0.008065
C       -0.623814     1.366945    -0.000965
H       -1.140368     2.273736    -0.031260
H        0.379774     1.355979     0.012569
6
Step 190, Time 38.000 fs, State 2, Energy -80.38193969 Ha, Coefficient [0.10310527+0.00596357j 0.33028675-0.93821341j]
C       -1.303245     0.214796     0.003058
H       -0.725278    -0.647103    -0.005952
H       -2.362270     0.248838    -0.011102
C       -0.627219     1.366168    -0.000396
H       -1.127252     2.286891    -0.031284
H        0.389104     1.357226     0.016723
6
Step 191, Time 38.200 fs, State 2, Energy -79.96972982 Ha, Coefficient [-0.07885016-0.05382787j  0.96592391+0.24057477j]
C       -1.302860     0.215467     0.002728
H       -0.721317    -0.672227    -0.013192
H       -2.355751     0.233083    -0.013596
C       -0.630587     1.368094     0.000330
H       -1.118698     2.296221    -0.026687
H        0.405614     1.357823     0.017152
6
Step 192, Time 38.400 fs, State 2, Energy -79.29490529 Ha, Coefficient [-0.02180912+0.09185305j -0.75104636+0.65346519j]
C       -1.300993     0.214579     0.001944
H       -0.735454    -0.698452    -0.016889
H       -2.354066     0.213376    -0.015534
C       -0.633122     1.372515     0.001102
H       -1.118006     2.298446    -0.017398
H        0.425340     1.359434     0.013638
6
Step 193, Time 38.600 fs, State 2, Energy -78.70919955 Ha, Coefficient [0.02109007+0.09294921j 0.96773129-0.23326338j]
C       -1.298422     0.212030     0.000940
H       -0.762769    -0.722444    -0.017569
H       -2.356391     0.196093    -0.016923
C       -0.634092     1.378306     0.001774
H       -1.126337     2.296136    -0.005637
H        0.444230     1.364397     0.007896
6
Step 194, Time 38.800 fs, State 2, Energy -78.59016372 Ha, Coefficient [ 0.08759707-0.03018898j -0.73437267+0.67239286j]
C       -1.296339     0.208698    -0.000143
H       -0.793562    -0.745073    -0.016860
H       -2.359424     0.181771    -0.017262
C       -0.632937     1.384327     0.002303
H       -1.143054     2.292196     0.007183
H        0.456192     1.373234     0.001302
6
Step 195, Time 39.000 fs, State 2, Energy -78.74596598 Ha, Coefficient [0.06639859-0.06240669j 0.99492452+0.04268287j]
C       -1.295992     0.205165    -0.001407
H       -0.820137    -0.758572    -0.014413
H       -2.359226     0.170403    -0.016324
C       -0.628902     1.389051     0.002782
H       -1.164955     2.290082     0.019280
H        0.452256     1.386030    -0.004822
6
Step 196, Time 39.200 fs, State 2, Energy -79.11062465 Ha, Coefficient [0.0246986 +0.07328923j 0.76272508+0.64208186j]
C       -1.298305     0.201405    -0.002617
H       -0.834394    -0.747438    -0.010611
H       -2.354396     0.164127    -0.013487
C       -0.623455     1.391175     0.002977
H       -1.184033     2.292547     0.029181
H        0.443414     1.398210    -0.009273
6
Step 197, Time 39.400 fs, State 2, Energy -79.40504360 Ha, Coefficient [ 0.07400521-0.01192162j -0.79337148-0.60410495j]
C       -1.301641     0.200044    -0.003306
H       -0.835655    -0.720019    -0.006792
H       -2.347510     0.164609    -0.008787
C       -0.619105     1.388895     0.002753
H       -1.192302     2.298526     0.033219
H        0.433963     1.407714    -0.010949
6
Step 198, Time 39.600 fs, State 2, Energy -79.44044912 Ha, Coefficient [0.03324475-0.06015896j 0.62529397+0.7773565j ]
C       -1.303620     0.202388    -0.003312
H       -0.829711    -0.691034    -0.003161
H       -2.341239     0.171408    -0.002947
C       -0.618405     1.382894     0.002238
H       -1.182356     2.301520     0.028211
H        0.427057     1.412514    -0.009208
6
Step 199, Time 39.800 fs, State 2, Energy -79.52561177 Ha, Coefficient [0.0268492 -0.05762289j 0.26505383-0.96213574j]
C       -1.304279     0.206496    -0.002912
H       -0.820335    -0.666070     0.000383
H       -2.337823     0.181252     0.002936
C       -0.620387     1.376302     0.001666
H       -1.158753     2.297955     0.016281
H        0.422120     1.410871    -0.004653
6
Step 200, Time 40.000 fs, State 2, Energy -79.91179712 Ha, Coefficient [-0.05703616+0.02805478j  0.95225289-0.29862057j]
C       -1.304445     0.210904    -0.002219
H       -0.807768    -0.647717     0.003220
H       -2.338542     0.190777     0.008509
C       -0.622899     1.370634     0.000907
H       -1.132842     2.294041     0.002612
H        0.416272     1.401939     0.001383
