10
Step 0, Time 0.000 fs, State 2, Energy -188.94519661 Ha, Coefficient [0.+0.j 1.+0.j]
N        0.008135    -0.356442    -0.035590
N        1.211434    -0.395100     0.020585
C       -0.687946     0.915640    -0.001660
C        1.948119     0.996092     0.027630
H       -0.247427     1.702241     0.782207
H       -0.597369     1.500751    -1.156112
H       -1.688747     0.783223     0.164366
H        2.047324     1.549735     1.186277
H        1.450140     1.498463    -0.876571
H        3.055178     0.658279    -0.195519
10
Step 1, Time 0.500 fs, State 2, Energy -188.94928018 Ha, Coefficient [ 0.00090788-0.00259047j -0.75745919-0.65287674j]
N        0.005744    -0.355442    -0.037725
N        1.209811    -0.396335     0.021699
C       -0.690217     0.916585    -0.002125
C        1.956318     0.996776     0.026223
H       -0.241916     1.705993     0.776524
H       -0.599314     1.468709    -1.127829
H       -1.676551     0.779856     0.165641
H        2.032122     1.550572     1.189017
H        1.442383     1.494615    -0.870114
H        3.047506     0.676810    -0.192105
