5
Step=0 Time=0.000 State=1 Energy=-93.38062173 Pop=[0.0000 1.0000]
C        0.000000     1.244007     0.000000
N        0.000000    -1.140072     0.000000
H        1.757445     2.358945     0.000000
H       -1.757445     2.358945     0.000000
H        0.000000    -2.292805     0.000000
5
Step=1 Time=0.200 State=1 Energy=-130.71574412 Pop=[0.0000 1.0000]
C       -0.000502     1.243331     0.000567
N        0.000617    -1.139818     0.000208
H        1.757860     2.359218    -0.000638
H       -1.757788     2.358571    -0.000229
H        0.000151    -2.293040     0.000373
5
Step=2 Time=0.400 State=1 Energy=-130.72082895 Pop=[0.0000 1.0000]
C       -0.001005     1.242653     0.001135
N        0.001234    -1.139559     0.000416
H        1.757563     2.358999    -0.001275
H       -1.757418     2.357704    -0.000459
H        0.000303    -2.292328     0.000748
