2
Step=0 Time=0.000 State=1 Energy=-7.92484246 Pop=[1.0000 0.0000]
Li       0.000000     0.000000     0.000000
H        3.023562     0.000000     0.000000
2
Step=1 Time=0.200 State=1 Energy=-8.46971511 Pop=[1.0000 0.0000]
Li       0.000390    -0.000428    -0.000546
H        3.023684     0.000439    -0.000154
2
Step=2 Time=0.400 State=1 Energy=-8.46971329 Pop=[1.0000 0.0000]
Li       0.000775    -0.000855    -0.001093
H        3.023844     0.000878    -0.000308
2
Step=3 Time=0.600 State=1 Energy=-8.46971161 Pop=[1.0000 0.0000]
Li       0.001153    -0.001283    -0.001639
H        3.024043     0.001317    -0.000461
2
Step=4 Time=0.800 State=1 Energy=-8.46971025 Pop=[1.0000 0.0000]
Li       0.001527    -0.001711    -0.002185
H        3.024280     0.001756    -0.000615
2
Step=5 Time=1.000 State=1 Energy=-8.46970924 Pop=[1.0000 0.0000]
Li       0.001894    -0.002139    -0.002731
H        3.024555     0.002195    -0.000769
2
Step=6 Time=1.200 State=1 Energy=-8.46970858 Pop=[1.0000 0.0000]
Li       0.002256    -0.002566    -0.003278
H        3.024869     0.002634    -0.000922
2
Step=7 Time=1.400 State=1 Energy=-8.46970824 Pop=[1.0000 0.0000]
Li       0.002612    -0.002994    -0.003824
H        3.025222     0.003073    -0.001076
2
Step=8 Time=1.600 State=1 Energy=-8.46970825 Pop=[1.0000 0.0000]
Li       0.002963    -0.003422    -0.004370
H        3.025613     0.003513    -0.001230
2
Step=9 Time=1.800 State=1 Energy=-8.46970861 Pop=[1.0000 0.0000]
Li       0.003308    -0.003850    -0.004917
H        3.026043     0.003952    -0.001383
2
Step=10 Time=2.000 State=1 Energy=-8.46970930 Pop=[1.0000 0.0000]
Li       0.003647    -0.004277    -0.005463
H        3.026511     0.004392    -0.001537
2
Step=11 Time=2.200 State=1 Energy=-8.46971033 Pop=[1.0000 0.0000]
Li       0.003980    -0.004705    -0.006009
H        3.027017     0.004832    -0.001690
2
Step=12 Time=2.400 State=1 Energy=-8.46971169 Pop=[1.0000 0.0000]
Li       0.004308    -0.005133    -0.006556
H        3.027562     0.005272    -0.001844
2
Step=13 Time=2.600 State=1 Energy=-8.46971337 Pop=[1.0000 0.0000]
Li       0.004630    -0.005561    -0.007102
H        3.028146     0.005712    -0.001997
2
Step=14 Time=2.800 State=1 Energy=-8.46971535 Pop=[1.0000 0.0000]
Li       0.004947    -0.005989    -0.007648
H        3.028767     0.006152    -0.002150
2
Step=15 Time=3.000 State=1 Energy=-8.46971769 Pop=[1.0000 0.0000]
Li       0.005258    -0.006417    -0.008195
H        3.029428     0.006592    -0.002303
2
Step=16 Time=3.200 State=1 Energy=-8.46972036 Pop=[1.0000 0.0000]
Li       0.005563    -0.006845    -0.008741
H        3.030126     0.007033    -0.002456
2
Step=17 Time=3.400 State=1 Energy=-8.46972329 Pop=[1.0000 0.0000]
Li       0.005863    -0.007272    -0.009288
H        3.030863     0.007474    -0.002609
2
Step=18 Time=3.600 State=1 Energy=-8.46972649 Pop=[1.0000 0.0000]
Li       0.006157    -0.007700    -0.009834
H        3.031638     0.007915    -0.002762
2
Step=19 Time=3.800 State=1 Energy=-8.46973000 Pop=[1.0000 0.0000]
Li       0.006446    -0.008128    -0.010380
H        3.032452     0.008357    -0.002914
2
Step=20 Time=4.000 State=1 Energy=-8.46973377 Pop=[1.0000 0.0000]
Li       0.006728    -0.008556    -0.010927
H        3.033304     0.008798    -0.003067
